39
Alcohol
O       2.57714900     -3.28588800      0.17376100
C       2.42245700     -1.89365000      0.42401800
C       3.27352200     -1.17367700     -0.63174600
C       3.23532200      0.32461300     -0.47313900
C       2.36941200      1.10366500     -1.24086900
C       2.29165400      2.47934200     -1.05241900
C       3.08107200      3.09711200     -0.08757600
C       3.95044700      2.33057600      0.68245800
C       4.02549200      0.95530100      0.48872700
C       0.97440400     -1.45523900      0.37113100
C       0.47356000     -0.55619500      1.30816100
C      -0.83137300     -0.08860400      1.21883700
C      -1.67435100     -0.51456200      0.18995600
C      -3.06852300     -0.01294400      0.09009800
C      -4.11550000     -0.87158300     -0.25862100
C      -5.42010800     -0.40108100     -0.35173000
C      -5.70153700      0.93729800     -0.09707900
C      -4.66809600      1.80132100      0.25082100
C      -3.36372800      1.33030000      0.34280400
C      -1.17020800     -1.42625700     -0.74315300
C       0.13551900     -1.88726400     -0.65484600
H       2.05115800     -3.76911500      0.81525400
H       2.82300700     -1.64954600      1.41642300
H       4.29938100     -1.54139300     -0.54026300
H       2.90459600     -1.46148000     -1.62064000
H       1.74272800      0.62476200     -1.98669100
H       1.61270000      3.06906300     -1.65858400
H       3.02173000      4.16949500      0.06145200
H       4.57270000      2.80426700      1.43387600
H       4.70631500      0.36275900      1.09269400
H       1.11156500     -0.21254600      2.11640900
H      -1.20333400      0.60082200      1.96905600
H      -3.91068400     -1.92112400     -0.44086900
H      -6.21961300     -1.08392300     -0.61692000
H      -6.71905400      1.30446800     -0.16921500
H      -4.87610700      2.84780100      0.44424200
H      -2.56299900      2.01693400      0.59604100
H      -1.79948100     -1.76096500     -1.56093700
H       0.51158500     -2.58401100     -1.39640400