40
Alcohol
O       1.96327300      1.58404500     -1.78965100
C       1.16823100      1.83750000     -0.63326600
C       2.05735000      1.46259700      0.57492400
C       2.41769000      0.00091000      0.65485400
C       1.61886000     -0.89103200      1.37291500
C       1.92519600     -2.24639000      1.42088500
C       3.04331500     -2.73301800      0.75049700
C       3.85202700     -1.85298700      0.03817300
C       3.54001700     -0.49794800     -0.00679300
C       0.83830700      3.33215200     -0.58273800
C      -0.09518500      0.97723500     -0.64324700
C      -1.09664900      1.19198400      0.31517300
C      -2.21492100      0.37832800      0.38296300
O      -3.21647600      0.52158000      1.28498600
C      -3.10827800      1.56326400      2.23955300
C      -2.36090000     -0.68831600     -0.53172200
O      -3.48395400     -1.43551000     -0.39762700
C      -3.66069600     -2.52607300     -1.28514100
C      -1.37380000     -0.89786600     -1.47906800
C      -0.24634800     -0.07236400     -1.52946400
H       1.47401600      1.87679500     -2.56281200
H       2.96413000      2.07125300      0.51191800
H       1.52749100      1.76052200      1.48359200
H       0.74084500     -0.51956500      1.89198100
H       1.29073300     -2.92294500      1.98322400
H       3.28534800     -3.78948600      0.78705400
H       4.72893300     -2.22173500     -0.48304400
H       4.17135500      0.18301500     -0.56740400
H       1.76550800      3.90928100     -0.61153200
H       0.29593800      3.60289500      0.32493400
H       0.22224400      3.61391000     -1.44163600
H      -0.98845500      1.99609900      1.03075700
H      -4.00085900      1.49586800      2.85826600
H      -2.22075200      1.43546100      2.86766400
H      -3.07601800      2.54451600      1.75536100
H      -2.85358700     -3.25808600     -1.17969400
H      -3.71311700     -2.18734700     -2.32476100
H      -4.60610200     -2.98815800     -1.00797300
H      -1.45959900     -1.71118800     -2.18763300
H       0.52389700     -0.27988500     -2.26090000