35
Converted from GJF
O      -0.50836000      3.34653600     -1.11816500
C      -0.01391000      2.03587400     -0.86762600
C       1.19579800      2.22273200      0.06369600
C       1.90574500      0.93110400      0.37659600
C       1.53664300      0.16056800      1.47957400
C       2.13588300     -1.07016700      1.72068500
C       3.12079300     -1.54720800      0.86119900
C       3.50720300     -0.78113600     -0.23382400
C       2.90331000      0.44890500     -0.47096500
C      -1.07289700      1.13748900     -0.24665300
C      -1.11925700     -0.26978700     -0.50266700
C      -2.09194200     -1.05845400      0.17722700
C      -2.13621000     -2.46048600     -0.04442600
C      -1.25679700     -3.06635300     -0.89881600
C      -0.29261500     -2.28962500     -1.57924100
C      -0.22812400     -0.93542800     -1.38950100
C      -2.99690000     -0.43892800      1.07583000
C      -2.93744700      0.90878000      1.29725700
C      -1.96843600      1.69140100      0.63525300
H      -1.26292800      3.27857100     -1.70797800
H       0.33575000      1.60651100     -1.81153900
H       1.88050100      2.92098700     -0.42517800
H       0.83723700      2.69530900      0.98305500
H       0.75869900      0.52207600      2.14479400
H       1.83202900     -1.65905100      2.57920500
H       3.58775200     -2.50814500      1.04650300
H       4.27861200     -1.14209900     -0.90526000
H       3.20330200      1.03958500     -1.33157900
H      -2.88276500     -3.04526400      0.48340900
H      -1.29624200     -4.13819800     -1.05677000
H       0.40372600     -2.77101700     -2.25672800
H       0.53319900     -0.37514800     -1.91493100
H      -3.73286000     -1.05279300      1.58481400
H      -3.62837200      1.38301900      1.98513900
H      -1.92579200      2.75768900      0.82676500