26
Alcohol
O       1.69036100      2.61113700      0.10210600
C       0.74538200      1.59085700      0.40238000
C      -0.35963300      1.70133000     -0.65744500
C      -1.47048100      0.70866900     -0.42953800
C      -1.50908500     -0.49870500     -1.12699200
C      -2.50713900     -1.43439300     -0.87634100
C      -3.48344300     -1.17458800      0.08008600
C      -3.45640300      0.02765900      0.78016200
C      -2.45693100      0.96046300      0.52492800
C       1.37474300      0.22757800      0.45244500
C       1.20296400     -0.72775100      1.40919100
C       1.87457600     -1.95024200      1.11106800
C       2.54876800     -1.89821600     -0.06992600
S       2.37480800     -0.36381100     -0.83710600
H       2.39089400      2.57802600      0.75810800
H       0.29725300      1.77130400      1.38796900
H       0.08866000      1.55573500     -1.64450000
H      -0.74794800      2.72273400     -0.61920400
H      -0.74615100     -0.70982500     -1.86963000
H      -2.52204700     -2.36741400     -1.42896900
H      -4.26255200     -1.90272000      0.27632900
H      -4.21619100      0.24090100      1.52406600
H      -2.44277600      1.89767300      1.07340600
H       0.60426000     -0.56486200      2.29678200
H       1.86114000     -2.82171800      1.75224900
H       3.15573200     -2.66391500     -0.52987800