35
Converted from GJF
O      -1.66150000      3.34583800     -0.59101000
C      -1.52667400      1.92986800     -0.64366900
C      -2.58803500      1.36529500      0.31132900
C      -2.59671800     -0.14163700      0.32732400
C      -1.89376500     -0.85161800      1.30116800
C      -1.85189600     -2.24136300      1.27884100
C      -2.51414500     -2.94351900      0.27655400
C      -3.22038000     -2.24635300     -0.69872600
C      -3.26012900     -0.85615900     -0.67079600
C      -0.13340100      1.46880000     -0.27241500
C       0.52387300      1.99959700      0.83824900
C       1.76061600      1.50602700      1.22338900
C       2.36199300      0.47507300      0.50901100
C       1.72012000     -0.04435200     -0.62025900
O       2.27148300     -1.04203000     -1.36955500
C       3.66042100     -1.24565700     -1.12326300
C       3.92909000     -1.25011600      0.36449900
O       3.57358900      0.00922200      0.92921900
C       0.47856100      0.45458000     -0.99700900
H      -0.99122300      3.73336800     -1.15864300
H      -1.75191700      1.57500400     -1.65781900
H      -2.38751000      1.75656600      1.31306700
H      -3.56170000      1.74858500     -0.00668000
H      -1.36502800     -0.30759900      2.07759900
H      -1.30039300     -2.77653700      2.04412300
H      -2.48260500     -4.02720400      0.25715700
H      -3.74284900     -2.78540300     -1.48145600
H      -3.81287200     -0.31762900     -1.43489900
H       0.06127900      2.79638000      1.40942300
H       2.27675000      1.90214800      2.09062300
H       4.23637700     -0.45174200     -1.61103300
H       3.91964400     -2.20486100     -1.56888500
H       3.35230900     -2.04338700      0.85250300
H       4.98865700     -1.39690500      0.56849800
H      -0.00469300      0.02417300     -1.86816800