32
Converted from GJF
O      -0.32821200      3.30469100      0.17201300
C       0.21781600      2.00819800      0.39377000
C       1.32020500      1.70414500     -0.64114800
C       1.93712400      0.34450500     -0.43782900
C       1.49919100     -0.75747700     -1.17295200
C       2.02599500     -2.02325800     -0.94110100
C       3.00031300     -2.20586300      0.03544800
C       3.44584100     -1.11394200      0.77376500
C       2.91725400      0.15059400      0.53635100
C      -0.90473200      1.00230100      0.32324700
C      -1.01000800     -0.00887800      1.27228300
C      -1.99367500     -0.98716900      1.16415900
C      -2.90386300     -0.97589000      0.10872900
C      -3.99002200     -2.01439700      0.00322800
C      -2.79550200      0.04503800     -0.83935600
C      -1.81075100      1.01803100     -0.73684900
H       0.39177700      3.93977100      0.17358400
H       0.66366900      1.96265500      1.39560900
H       0.88163900      1.78097900     -1.64031100
H       2.09102800      2.47787900     -0.55701800
H       0.73007200     -0.62226400     -1.92687500
H       1.67410100     -2.86841100     -1.52254800
H       3.41188000     -3.19227200      0.21799100
H       4.20784700     -1.24606100      1.53407500
H       3.27042300      0.99903400      1.11504400
H      -0.30833900     -0.04321100      2.10009200
H      -2.05230700     -1.77053300      1.91352000
H      -4.93030000     -1.63378500      0.41441800
H      -3.72903400     -2.91903800      0.55602800
H      -4.17553100     -2.28834000     -1.03789400
H      -3.49053900      0.07390000     -1.67319500
H      -1.74181300      1.79654500     -1.48910200