37
Alcohol
O       0.44765900     -0.60068800      1.65565100
C       0.11462100      0.11211900      0.46408900
C       0.99147800     -0.42679800     -0.67117800
C       2.45845800     -0.16004500     -0.44498300
C       3.31681900     -1.16832400     -0.00742500
C       4.66540400     -0.91005600      0.21983900
C       5.17683400      0.36671700      0.01213700
C       4.33056500      1.38155000     -0.42594600
C       2.98453700      1.11708500     -0.65254400
C      -1.36955700      0.05006500      0.14994200
C      -2.11076100      1.23856600      0.05407700
O      -1.41631900      2.39192900      0.23508400
C      -2.11100400      3.62594300      0.17367800
C      -3.48120900      1.22049300     -0.21706700
C      -4.11397400      0.00057300     -0.39824000
C      -3.41466700     -1.19469700     -0.31940200
C      -2.04446800     -1.16583800     -0.04972300
O      -1.29194500     -2.28851700      0.03325600
C      -1.91189300     -3.54488600     -0.17788800
H      -0.04328300     -0.20794200      2.38020300
H       0.37191700      1.16427300      0.60507300
H       0.66641200      0.06385400     -1.59370100
H       0.80857900     -1.49604500     -0.78353600
H       2.92338100     -2.16620800      0.15825300
H       5.31725400     -1.70773400      0.55944600
H       6.22757200      0.56958400      0.18711900
H       4.72085300      2.37919900     -0.59574600
H       2.33120600      1.91264200     -0.99943700
H      -1.36428500      4.39593300      0.35727900
H      -2.88790400      3.68367600      0.94200700
H      -2.55705600      3.78212200     -0.81313000
H      -4.05107400      2.13606800     -0.28820000
H      -5.17745400     -0.01975900     -0.60834000
H      -3.93516400     -2.13002300     -0.46950000
H      -2.34376000     -3.61313100     -1.18112400
H      -1.12189100     -4.28622500     -0.07457200
H      -2.68755700     -3.73687600      0.56976600