35
Alcohol
O      -2.00933100     -3.30194300     -0.34292700
C      -1.88548500     -1.89923900     -0.53182000
C      -2.80758000     -1.24329000      0.50656500
C      -2.80450300      0.26083800      0.40985100
C      -3.55255800      0.90782800     -0.57462000
C      -3.50684100      2.29119600     -0.70969000
C      -2.71008000      3.04934700      0.14288400
C      -1.96358700      2.41501200      1.13068100
C      -2.01155600      1.03117600      1.26042600
C      -0.45580400     -1.42152400     -0.38087100
C       0.04641000     -0.43227100     -1.22324500
C       1.32920800      0.06609300     -1.04528700
C       2.13124700     -0.42954200     -0.01749500
C       3.51364100      0.07075500      0.21735600
O       3.87093600      1.02074600     -0.64699000
C       5.18797300      1.56266700     -0.49628800
O       4.24345800     -0.33310800      1.09523000
C       1.63550100     -1.42720200      0.82301900
C       0.35191900     -1.91714900      0.64252800
H      -1.47293500     -3.74786400     -1.00268100
H      -2.24017400     -1.62570400     -1.53348400
H      -2.48132300     -1.56244100      1.50076000
H      -3.81578400     -1.63497400      0.34628800
H      -4.17672300      0.32183700     -1.24277400
H      -4.09540000      2.77778300     -1.47972800
H      -2.67372200      4.12809100      0.03963500
H      -1.34139500      2.99808900      1.80074500
H      -1.41840100      0.53996700      2.02549000
H      -0.57588000     -0.03980800     -2.02070300
H       1.70811900      0.83738800     -1.70332600
H       5.93717600      0.78032400     -0.62250700
H       5.29940600      2.02241500      0.48631300
H       5.28622100      2.31114200     -1.27838300
H       2.26361500     -1.80987900      1.61849500
H      -0.03073700     -2.69009900      1.29939200