36
Converted from GJF
O      -1.57645900      1.78058100      1.49194400
C      -1.02934000      1.90098700      0.17972000
C      -2.02245300      1.17234600     -0.75474000
C      -2.13773300     -0.31019900     -0.50724600
C      -3.01904900     -0.81043100      0.45179800
C      -3.09827900     -2.17597000      0.70507900
C      -2.29500500     -3.06579800     -0.00145000
C      -1.41725200     -2.57978300     -0.96553800
C      -1.34271500     -1.21383900     -1.21472400
C      -0.97019600      3.38474600     -0.19320700
C       0.34657500      1.24042400      0.10145500
C       1.16234400      1.40809200     -1.02334000
C       2.37594200      0.75439700     -1.13736100
C       2.81494600     -0.09557900     -0.11875800
O       4.01762200     -0.69428500     -0.31684200
C       4.49522600     -1.57932000      0.68240700
C       2.01825600     -0.27658900      1.00736800
C       0.79559600      0.38778300      1.10106200
H      -1.03392900      2.29668400      2.09380600
H      -2.99774200      1.65207900     -0.63045800
H      -1.70042600      1.34933400     -1.78446800
H      -3.64351300     -0.12026000      1.00872200
H      -3.78952900     -2.54587700      1.45470700
H      -2.35616900     -4.13065000      0.19446100
H      -0.79010600     -3.26510600     -1.52543300
H      -0.65034400     -0.84096900     -1.96301600
H      -0.28436200      3.91643500      0.47278000
H      -1.96581600      3.82375900     -0.09459000
H      -0.62995800      3.53628000     -1.21913200
H       0.84584200      2.04831300     -1.83944900
H       2.99912100      0.88900300     -2.01406100
H       5.45537400     -1.94641800      0.32537600
H       3.81325600     -2.42397200      0.82267900
H       4.63714300     -1.06152400      1.63629400
H       2.32422200     -0.93115500      1.81287600
H       0.17646000      0.21608100      1.97294800