35
Alcohol
O      -1.49416200      3.33986000     -0.65313000
C      -1.40494700      1.91933800     -0.67691600
C      -2.46732200      1.40615800      0.30554400
C      -2.52973400     -0.09930500      0.34067200
C      -1.83804300     -0.82315100      1.31230100
C      -1.84731400     -2.21374800      1.30612700
C      -2.55083500     -2.90255800      0.32301000
C      -3.24649200     -2.19129600     -0.64973900
C      -3.23456300     -0.80044800     -0.63840500
C      -0.02156800      1.42687900     -0.31287500
C       0.63262500      1.94627300      0.83407300
C       1.84789400      1.45934900      1.22682400
C       2.48333400      0.41773400      0.49967000
C       1.83637400     -0.10357100     -0.65202800
C       2.46432800     -1.14641800     -1.38109100
C       3.67648900     -1.64533300     -0.98283600
C       4.32137100     -1.12484600      0.16332000
C       3.73885200     -0.11740000      0.88632200
C       0.57902400      0.43102800     -1.03581100
H      -0.84478900      3.69396100     -1.26515800
H      -1.65417500      1.54907700     -1.67948100
H      -3.43107700      1.82097400     -0.00235000
H      -2.23899200      1.80278600      1.29919700
H      -1.27838800     -0.29054800      2.07488700
H      -1.30341500     -2.75985400      2.06906700
H      -2.55927900     -3.98680900      0.31642200
H      -3.80089800     -2.71982400     -1.41751300
H      -3.77928300     -0.25093100     -1.40042100
H       0.15497500      2.73904800      1.39954100
H       2.34163100      1.86145100      2.10572100
H       1.96715100     -1.54435300     -2.25990900
H       4.14748700     -2.44334300     -1.54577200
H       5.28058400     -1.52841800      0.46752600
H       4.23090100      0.28384700      1.76650200
H       0.08403400      0.02195800     -1.91218700