29
Alcohol
O       1.53078800      2.82086200      0.10883300
C       0.68259800      1.71172200      0.38510900
C      -0.46271800      1.78793900     -0.63373800
C      -1.48664600      0.70121100     -0.42858300
C      -1.44589300     -0.47343600     -1.18004700
C      -2.35891000     -1.49746200     -0.95197400
C      -3.32838300     -1.36073200      0.03651600
C      -3.37998600     -0.19270500      0.79114800
C      -2.46541100      0.82884300      0.55797500
C       1.42019200      0.39070300      0.30885500
C       2.28286600      0.12148700     -0.75384300
C       2.91311700     -1.11283700     -0.85501500
C       2.68336600     -2.09562200      0.10447300
C       1.82581300     -1.83374700      1.16724600
C       1.20087200     -0.59452100      1.26839600
H       2.26702400      2.79913800      0.72460600
H       0.25718400      1.81423900      1.39181100
H      -0.92853300      2.77261700     -0.53664500
H      -0.03229700      1.72197700     -1.63733400
H      -0.68475300     -0.58935300     -1.94526900
H      -2.31247400     -2.40351700     -1.54617900
H      -4.04120300     -2.15787000      0.21592700
H      -4.13498100     -0.07554400      1.56085100
H      -2.51184800      1.73855700      1.14928200
H       2.46066100      0.88494800     -1.50389400
H       3.58269800     -1.31069400     -1.68482800
H       3.17335700     -3.05959500      0.02452600
H       1.64460500     -2.59284200      1.92011500
H       0.52899400     -0.39401100      2.09727800