33
Converted from GJF
O       0.80172700      3.41683200     -0.27337300
C       0.92938800      2.01222600     -0.47749600
C       1.99871200      1.53431900      0.51433400
C       2.28680600      0.06173500      0.37388000
C       1.67033000     -0.87231600      1.20683300
C       1.89322200     -2.23467600      1.03806600
C       2.73811300     -2.68388000      0.02795700
C       3.36019200     -1.76146500     -0.80774700
C       3.13504500     -0.39999500     -0.63343500
C      -0.38363500      1.28373600     -0.29603800
C      -0.78675100      0.30960400     -1.19811000
C      -1.95702900     -0.42412000     -1.00691600
C      -2.74587900     -0.17227800      0.11256600
O      -3.90211000     -0.82247800      0.39910100
C      -4.33623500     -1.83972300     -0.48830700
C      -2.35584800      0.81333400      1.02563500
C      -1.18869400      1.52569800      0.82124600
H       0.11461700      3.74373500     -0.85874200
H       1.29429400      1.81997100     -1.49499800
H       2.90611400      2.11829500      0.33584600
H       1.65318000      1.76045000      1.52743900
H       1.00156100     -0.52766000      1.98929000
H       1.40562300     -2.94623300      1.69546100
H       2.91310200     -3.74564400     -0.10544200
H       4.02367100     -2.10218200     -1.59512300
H       3.62415000      0.31484800     -1.28855200
H      -0.17576300      0.10154400     -2.07110400
H      -2.23448500     -1.17687900     -1.73281500
H      -3.60194300     -2.64876600     -0.55311200
H      -4.52838900     -1.43824500     -1.48823800
H      -5.26362600     -2.22673400     -0.07101100
H      -2.98101700      1.00168000      1.89094500
H      -0.89445500      2.28378400      1.53952100