32
Alcohol
O      -0.91938800      3.43753000     -0.50929400
C      -1.06204400      2.02432200     -0.58682300
C      -2.14890700      1.53757800      0.39433500
C      -2.32409900      0.04142100      0.35894400
C      -1.68392500     -0.77548100      1.29144700
C      -1.79005100     -2.15981500      1.21722500
C      -2.53927200     -2.74905800      0.20340500
C      -3.18398200     -1.94432000     -0.73069900
C      -3.07635900     -0.55973800     -0.65080500
C       0.27638500      1.39050800     -0.28864900
C       0.69611500      0.29049000     -1.05236800
C       1.86641800     -0.32450600     -0.67936500
O       2.50241600     -1.38019100     -1.27269800
C       3.50102700     -1.77339500     -0.33324100
O       3.75193000     -0.64379300      0.50019500
C       2.62231000      0.12095700      0.39450500
C       2.24024200      1.20649500      1.14656600
C       1.04030100      1.83314300      0.78689800
H      -1.78400500      3.83571000     -0.63394300
H      -1.36330900      1.73939700     -1.60302100
H      -1.87011000      1.86730600      1.39931200
H      -3.09192100      2.02914400      0.13139800
H      -1.08686000     -0.32063700      2.07566100
H      -1.28564800     -2.77927600      1.95074400
H      -2.62247100     -3.82848200      0.14325500
H      -3.77324200     -2.39484000     -1.52188100
H      -3.58208800      0.06275300     -1.38306800
H       0.11396400     -0.06879900     -1.89271000
H       3.11597900     -2.59676100      0.27982300
H       4.41139700     -2.04729200     -0.86108700
H       2.83781000      1.55859100      1.97789900
H       0.69588600      2.68319900      1.36373500