37
Alcohol
O      -0.76327300     -3.19553200     -1.15966200
C      -1.11749500     -1.82143600     -1.02492600
C      -2.05999100     -1.74344800      0.18396000
C      -2.56356800     -0.34377700      0.42593000
C      -3.64502500      0.15458700     -0.30142100
C      -4.08025000      1.46407500     -0.12557900
C      -3.43705500      2.29623300      0.78527800
C      -2.35937200      1.80889800      1.51844700
C      -1.92758600      0.49946800      1.33783400
C       0.09295300     -0.92903900     -0.86390900
C       0.21806300      0.23683000     -1.59415000
C       1.29817300      1.09836600     -1.38031100
C       2.26317100      0.79172800     -0.43487400
O       3.34336900      1.55875200     -0.15272100
C       3.49316800      2.77752100     -0.86053600
C       2.14775800     -0.40593600      0.30903000
O       3.13429000     -0.63561400      1.20873100
C       3.05479700     -1.81321700      1.99356200
C       1.07034500     -1.24630100      0.08856500
H      -0.14354900     -3.27506500     -1.88857400
H      -1.67024300     -1.49424700     -1.91512500
H      -2.89730700     -2.42233400     -0.00044200
H      -1.52288900     -2.11232700      1.06278300
H      -4.15179800     -0.49028900     -1.01328600
H      -4.92360900      1.83379500     -0.69856300
H      -3.77532500      3.31693900      0.92492200
H      -1.85299300      2.44993700      2.23183200
H      -1.07873700      0.12764000      1.90309900
H      -0.53204700      0.50004900     -2.33229900
H       1.37213200      2.00771400     -1.96197300
H       4.40398900      3.23498800     -0.47953600
H       2.64657800      3.44740900     -0.67952600
H       3.59748900      2.60191100     -1.93594600
H       2.14720100     -1.82118800      2.60556000
H       3.92821500     -1.79977100      2.64238600
H       3.08141000     -2.71037500      1.36706000
H       0.96788000     -2.16293200      0.65544600