24
Converted from GJF
O      -0.06794500      2.59046600      0.66798200
C      -0.00290500      1.56408100     -0.31201200
C       1.18053600      0.62151600     -0.17029300
C       0.73646300     -0.69784000     -0.02521800
C       1.64518500     -1.74026500      0.10293100
C       3.00657100     -1.44203900      0.09421300
C       3.44778400     -0.12734300     -0.04338500
C       2.53247600      0.91690300     -0.18221800
C      -0.73744000     -0.69622000     -0.02701100
C      -1.17934100      0.62374800     -0.16915600
C      -2.52998800      0.92451900     -0.17676100
C      -3.44738400     -0.11820700     -0.04330200
C      -3.00941800     -1.43502200      0.08761300
C      -1.64907500     -1.73693600      0.09627700
H       0.58564100      3.25984700      0.45359700
H      -0.00394500      2.01195200     -1.31477800
H       1.30904700     -2.76569400      0.21138000
H       3.73144400     -2.24185400      0.19657000
H       4.51098300      0.08466400     -0.04629200
H       2.88188200      1.93794100     -0.29641400
H      -2.87029000      1.94884700     -0.28214800
H      -4.51014400      0.09610700     -0.04408600
H      -3.73635600     -2.23348600      0.18617600
H      -1.31548100     -2.76342900      0.20206500