33
Photocatalyst_OH
O      -0.91777900      2.92043100     -1.01521900
C      -0.74267500      2.07141400      0.11032500
C       0.58248000      1.32399100      0.07210600
C       1.26085400      1.10628400     -1.12290600
C       2.44770800      0.38330300     -1.13952300
C       2.96337800     -0.12167400      0.04729100
C       4.21596400     -0.94568500      0.03915100
F       4.98736800     -0.71527700      1.11882500
F       3.94792500     -2.27160900      0.04522000
F       4.98036600     -0.71880100     -1.04257300
C       2.29441500      0.09225200      1.25104900
C       1.11243700      0.81394700      1.25790400
C      -1.90664300      1.10424300      0.15152000
C      -2.75089200      1.05155100      1.25978000
C      -3.80969300      0.15872100      1.30890200
C      -4.04903500     -0.70107600      0.23581600
O      -5.10589800     -1.54015800      0.36809000
C      -5.38859000     -2.43894000     -0.69235500
C      -3.21532500     -0.65605100     -0.88312900
C      -2.15249700      0.24008600     -0.91032700
H      -0.21885000      3.57985400     -1.01144800
H      -0.76477900      2.66787800      1.03006500
H       0.86234700      1.50577400     -2.04766100
H       2.96752100      0.22066000     -2.07554600
H       2.69849200     -0.29492300      2.17879500
H       0.59536800      0.98358700      2.19663600
H      -2.58087100      1.71788000      2.09944200
H      -4.46467900      0.11779700      2.17134600
H      -6.25996900     -3.00937200     -0.37746900
H      -4.55150200     -3.12202800     -0.86648900
H      -5.62198100     -1.90103600     -1.61638600
H      -3.37713500     -1.31057800     -1.72925200
H      -1.50680100      0.25931200     -1.78186400