32
Photocatalyst_OH
O       1.45014200      2.07491900      1.41609800
C       1.37724700      0.65998100      1.32463400
C      -0.00744000      0.16481600      0.93797800
C      -0.93739800      0.98329500      0.35571300
C      -2.21017400      0.48671500     -0.03285200
C      -3.18585900      1.31940700     -0.63930500
C      -4.40504200      0.81404500     -1.00752800
C      -4.70970800     -0.54916300     -0.78686700
C      -3.78721800     -1.37682700     -0.20262900
C      -2.51657500     -0.88198500      0.18740200
C      -1.53532700     -1.71021500      0.79510200
C      -0.32066000     -1.20178900      1.15877400
C       2.41089300      0.21132900      0.31005000
C       3.39915800     -0.70201800      0.66340900
C       4.33794500     -1.12571100     -0.27466500
C       4.29736600     -0.62916900     -1.57142900
C       3.31185500      0.28901000     -1.92971700
C       2.37121000      0.70173800     -0.99592200
H       0.81919700      2.36719800      2.07907600
H       1.63659200      0.21398300      2.29291800
H      -0.70753600      2.02882400      0.17875600
H      -2.95038000      2.36532800     -0.80772600
H      -5.14324300      1.45912600     -1.47065700
H      -5.67819000     -0.93631800     -1.08284600
H      -4.01694100     -2.42366200     -0.03166900
H      -1.76633400     -2.75588600      0.97062100
H       0.41982800     -1.84603700      1.62295000
H       3.43887700     -1.08639600      1.67771800
H       5.10251900     -1.83898900      0.01220100
H       5.02880700     -0.95463800     -2.30264000
H       3.27534800      0.67870900     -2.94099100
H       1.59869400      1.40866000     -1.27937900