30
Photocatalyst_OH
O       0.07558000     -0.97071900      2.14587800
C       0.02423900     -1.12933800      0.72140800
C      -1.27595300     -0.61650100      0.13523600
C      -1.66295300      0.72240800      0.28257100
C      -2.88452700      1.13203000     -0.24625500
C      -3.71667300      0.23865200     -0.91539100
C      -3.32911400     -1.08622900     -1.06347500
C      -2.11301600     -1.50658500     -0.53334600
C      -0.74169400      1.70470400      0.95481200
C       0.51501800      1.97231200      0.12637200
C       1.51062600      0.84382200     -0.08672100
C       1.29340100     -0.52400300      0.14644300
C       2.32067300     -1.43263300     -0.13731700
C       3.54544500     -1.02792500     -0.64338300
C       3.76310700      0.32500200     -0.87686200
C       2.75501500      1.23399500     -0.59853800
H      -0.70804100     -1.38694000      2.51488300
H       0.06779100     -2.20086300      0.49836100
H      -3.18790800      2.16853100     -0.13519600
H      -4.66388900      0.57973600     -1.31833500
H      -3.96892600     -1.79150600     -1.58163600
H      -1.81122300     -2.54429000     -0.63896600
H      -1.26463700      2.65444200      1.09086200
H      -0.46057900      1.33930600      1.94434900
H       0.20663200      2.33223600     -0.86318000
H       1.05829700      2.80217300      0.58812200
H       2.14660100     -2.48820700      0.04671100
H       4.31848500     -1.75845300     -0.85251800
H       4.71174700      0.67110600     -1.27194000
H       2.92944500      2.29021300     -0.78185800