47
Photocatalyst_OH
O      -2.49927500      1.82838000      0.11416100
C      -2.78212500      0.42425300      0.01958900
C      -2.22521100     -0.19988400      1.28479500
C      -0.84218500     -0.38261500      1.45174800
Si      0.28948200     -0.01395000      0.00313900
C       0.97783500      1.73066000      0.04678800
C       1.25246300      2.42491000     -1.13668800
C       1.80862000      3.69986900     -1.10699900
C       2.10039400      4.30246700      0.11270000
C       1.83337700      3.62718400      1.29969100
C       1.27705100      2.35264300      1.26406900
C      -0.84229400     -0.30206200     -1.46369500
C      -0.37827900     -0.75250400     -2.70066500
C      -1.25895600     -1.02397100     -3.74447000
C      -2.62464400     -0.85817900     -3.55313000
C      -3.10419900     -0.41495700     -2.32375600
C      -2.22571500     -0.13357200     -1.28042900
C       1.71655400     -1.23484200     -0.03168300
C       3.05089100     -0.81624600     -0.03864500
C       4.09306300     -1.73988900     -0.06775800
C       3.81403600     -3.10132100     -0.09000600
C       2.49136800     -3.53819200     -0.08326300
C       1.45617700     -2.61219500     -0.05437100
C      -0.37444400     -0.90610200      2.65892400
C      -1.25164500     -1.23792500      3.68741700
C      -2.61786300     -1.05863900      3.51056900
C      -3.10026200     -0.54098000      2.31216100
H      -2.73377100      2.23626600     -0.72375300
H      -3.86818300      0.27946200      0.01499200
H       1.02580500      1.97006600     -2.09691900
H       2.01220100      4.22396500     -2.03446000
H       2.53213800      5.29699100      0.13832200
H       2.05590900      4.09477000      2.25265200
H       1.06892600      1.84114000      2.19965900
H       0.68598900     -0.90881900     -2.85161400
H      -0.88008900     -1.37184600     -4.69902400
H      -3.31878100     -1.07565000     -4.35723800
H      -4.17232400     -0.28697900     -2.17668500
H       3.28304100      0.24433500     -0.02119200
H       5.12150600     -1.39560800     -0.07270000
H       4.62386600     -3.82235200     -0.11245700
H       2.26975700     -4.59968600     -0.10032000
H       0.42960700     -2.96846000     -0.04906700
H       0.69010300     -1.07250900      2.79656100
H      -0.87029600     -1.64283500      4.61823800
H      -3.30987900     -1.32192700      4.30276100
H      -4.16810900     -0.39952700      2.17766300