33
Converted from GJF
O       0.05093500     -1.33459100      2.05010200
C       0.00023000     -1.58928800      0.63670700
C      -1.27988000     -1.01883700      0.04920200
C      -1.45266500      0.36875100     -0.09886700
C      -2.67875000      0.83844100     -0.57504200
C      -3.71392700     -0.03565700     -0.89754900
C      -3.52911000     -1.40476300     -0.75377100
C      -2.31430100     -1.89188600     -0.28049100
Si      0.00518800      1.50729700      0.24951900
C      -0.00006600      2.14213200      2.01176900
C       0.01096100      2.94579800     -0.95095600
C       1.45830700      0.36110100     -0.09208300
C       2.68632500      0.82809900     -0.56784800
C       3.72035000     -0.04791000     -0.88644000
C       3.53306700     -1.41653800     -0.73816600
C       2.31773400     -1.90007400     -0.26370000
C       1.28440800     -1.02498700      0.06140100
H      -0.79073100     -1.60216100      2.42888000
H      -0.00217900     -2.67268600      0.47267600
H      -2.83355300      1.90530800     -0.70871500
H      -4.65744100      0.35161800     -1.26617000
H      -4.32622100     -2.09399100     -1.00947600
H      -2.17121800     -2.96226300     -0.16626700
H      -0.88600900      2.75759700      2.19564300
H       0.88554000      2.75644500      2.20099400
H      -0.00186900      1.30538700      2.71342500
H      -0.87044000      3.57684300     -0.80251200
H       0.89344300      3.57408000     -0.79730300
H       0.01353500      2.59815400     -1.98740000
H       2.84271300      1.89444300     -0.70388900
H       4.66475900      0.33679200     -1.25555200
H       4.32961800     -2.10784800     -0.99007600
H       2.17384400     -2.96943000     -0.14333000