25
Photocatalyst_OH
O       0.05452600      1.51321200      1.83480300
C       0.00214400      1.39326700      0.40640600
C       1.25999500      0.68037700     -0.01232300
C       1.36961500     -0.70720600      0.10668800
C       2.57026900     -1.34959400     -0.19672400
C       3.66193600     -0.60879100     -0.62775000
C       3.55579700      0.77076800     -0.77785200
C       2.35862300      1.40397500     -0.47286300
S       0.00397400     -1.70511100      0.64174800
C      -1.36407200     -0.71382400      0.10339300
C      -2.56463900     -1.35662800     -0.19703600
C      -3.65578700     -0.61697100     -0.63282600
C      -3.54858500      0.76123900     -0.79187100
C      -2.35055000      1.39540500     -0.49065300
C      -1.25288800      0.67360100     -0.02306100
H      -0.77953400      1.88802600      2.13085600
H       0.00046900      2.39478500     -0.03703100
H       2.64432400     -2.42791800     -0.11032600
H       4.59141700     -1.11418600     -0.86342500
H       4.40261000      1.34920000     -1.12785600
H       2.27224700      2.48067700     -0.57687500
H      -2.63978500     -2.43446400     -0.10540100
H      -4.58565400     -1.12297000     -0.86557800
H      -4.39428700      1.33791600     -1.14734900
H      -2.26274600      2.47129400     -0.60457800