26
Photocatalyst_OH
O      -0.06080900     -2.06156300      1.37022600
C      -0.00200900     -1.51066200      0.04757400
C      -1.26640300     -0.70888000     -0.12278800
C      -1.27069500      0.67952900      0.03186100
C      -2.47097400      1.38901500     -0.05533200
C      -3.66042000      0.72219300     -0.29802300
C      -3.65695100     -0.66275900     -0.45403600
C      -2.46702200     -1.37190300     -0.36293300
C      -0.00329300      1.42616100      0.25813900
C       1.26786400      0.68357300      0.04200800
C       2.46711500      1.39427000     -0.03518300
C       3.65759900      0.73148900     -0.28793000
C       3.65371600     -0.64938100     -0.47090100
C       2.46300300     -1.36026300     -0.39192800
C       1.26290400     -0.70357400     -0.12976000
O      -0.00633900      2.60581500      0.56409300
H       0.70539800     -2.62792900      1.49590100
H      -0.00250700     -2.32996400     -0.68073400
H      -2.45156600      2.46583200      0.06251400
H      -4.58907000      1.27586400     -0.37121300
H      -4.58438500     -1.18897900     -0.64907100
H      -2.46668600     -2.45046400     -0.47851100
H       2.44694600      2.46971400      0.09498500
H       4.58599000      1.28657100     -0.35233500
H       4.57993200     -1.17171900     -0.68127600
H       2.46653200     -2.43579900     -0.53941600