26
Photocatalyst_OH
O       0.05684000      2.31688200     -0.75120600
C      -0.00706800      0.91617700     -0.97887700
C      -1.24666400      0.30074800     -0.34775800
C      -1.51996700      0.49356500      1.00749200
C      -2.65048100     -0.06985700      1.58359400
C      -3.51936100     -0.83928100      0.81219800
C      -3.25252100     -1.03609100     -0.53708200
C      -2.12150200     -0.46379900     -1.11434800
C       1.25647400      0.28126600     -0.43258600
C       2.00079700      0.89006300      0.57428700
C       3.13295400      0.26282700      1.08765300
C       3.52984000     -0.97727600      0.60102300
C       2.78935800     -1.58870500     -0.40722800
C       1.66143000     -0.96105200     -0.92077400
H      -0.78344500      2.69984000     -1.01331800
H      -0.04486900      0.72032100     -2.05788100
H      -0.84191700      1.08693000      1.61178700
H      -2.85404000      0.08662400      2.63708700
H      -4.40047600     -1.28164700      1.26328500
H      -3.92585800     -1.63041200     -1.14455400
H      -1.92035900     -0.61420400     -2.17055500
H       1.69560600      1.85822200      0.95223000
H       3.70614900      0.74756100      1.87038800
H       4.41208000     -1.46432500      1.00107200
H       3.09403800     -2.55348900     -0.79739300
H       1.08862400     -1.44199500     -1.70806800