26
Photocatalyst_OH
O       0.04205500      2.88923400     -0.58710100
C      -0.00205500      1.85305800      0.38063300
C       1.25556400      1.01792000      0.24538100
C       1.98776300      0.99078000     -0.93736700
C       3.11163700      0.18000900     -1.05773500
C       3.49494800     -0.60455700      0.01867100
Cl      4.91205700     -1.62935600     -0.12436000
C       2.78297500     -0.59273600      1.21059300
C       1.66494400      0.22288700      1.31451800
C      -1.24258000      0.98847400      0.22015100
C      -1.54193800      0.41063900     -1.01387000
C      -2.66457000     -0.38790000     -1.17044900
C      -3.48829000     -0.61196200     -0.07334500
Cl     -4.90770700     -1.62429700     -0.26214000
C      -3.21390200     -0.05137200      1.16342800
C      -2.08653700      0.75338100      1.29991700
H      -0.78375000      3.37657800     -0.54220600
H      -0.01691900      2.28550400      1.38836600
H       1.68427700      1.61147300     -1.77085500
H       3.68069700      0.16270600     -1.97893800
H       3.09801300     -1.20642000      2.04520300
H       1.10552000      0.23579800      2.24432700
H      -0.89110100      0.58616900     -1.86338800
H      -2.89579400     -0.83458100     -2.12938700
H      -3.86849200     -0.23193000      2.00678200
H      -1.87059200      1.20121900      2.26425900