34
Photocatalyst_OH
O      -0.04957000      2.59606000     -1.29123500
C       0.00596300      1.88758700     -0.05662800
C      -1.25035900      1.05220600      0.07423300
C      -2.02936300      0.70869000     -1.02059500
C      -3.15659200     -0.10297700     -0.88232300
C      -3.51142000     -0.58080900      0.37566900
O      -4.58560900     -1.37403200      0.62370800
C      -5.40561000     -1.75085500     -0.46950200
C      -2.73451400     -0.23733200      1.48700700
C      -1.62201900      0.56830400      1.33203500
C       1.26280500      1.04129400      0.03987300
C       2.22699800      1.30572200      1.01198500
C       3.38269900      0.54503800      1.09942900
C       3.59969200     -0.50046000      0.20102600
O       4.75643800     -1.19092300      0.35744800
C       5.02436000     -2.26565900     -0.52860800
C       2.64580300     -0.77542400     -0.78150900
C       1.48989800     -0.00629600     -0.84782500
H       0.80107700      3.01989400     -1.42481200
H       0.02310600      2.60657400      0.77276200
H      -1.76240800      1.08012800     -2.00238800
H      -3.74001700     -0.34658900     -1.76047400
H      -6.19331400     -2.37573000     -0.05338800
H      -5.85332500     -0.87519400     -0.95007200
H      -4.84024600     -2.32540800     -1.21005300
H      -3.02226000     -0.60928700      2.46361300
H      -1.02784600      0.82474800      2.20416300
H       2.07324700      2.11879100      1.71480500
H       4.13012700      0.75002100      1.85707200
H       5.98908500     -2.66885200     -0.22759400
H       5.08340800     -1.91955000     -1.56513300
H       4.26280300     -3.04718400     -0.44536800
H       2.78658200     -1.58110800     -1.48979800
H       0.74986700     -0.23426600     -1.60830700