42
Photocatalyst_OH
O      -0.02121300      3.05488100     -0.86802300
C       0.01409700      2.09895200      0.19351100
C      -1.26970100      1.29901900      0.15658900
C      -1.71703200      0.65310900      1.30664400
C      -2.85388500     -0.14021600      1.30311800
C      -3.61349800     -0.31309900      0.12869000
N      -4.77421200     -1.07213000      0.12370500
C      -5.02540500     -1.95911000      1.24475500
C      -5.33909200     -1.46164700     -1.15502900
C      -3.15139800      0.33438900     -1.03190700
C      -2.00811900      1.12372500     -1.00864800
C       1.24846800      1.22305600      0.10507300
C       2.24913000      1.29720900      1.06793000
C       3.39302400      0.51154800      0.99760200
C       3.58996800     -0.38275200     -0.07098200
N       4.73960100     -1.14310400     -0.17553500
C       5.62391000     -1.23185500      0.97140100
C       4.77009100     -2.24150500     -1.12373600
C       2.56560500     -0.46343400     -1.03971700
C       1.43046600      0.32273600     -0.94555900
H       0.85901900      3.42800800     -0.95111300
H       0.05450300      2.63123300      1.15317400
H      -1.16029400      0.76208400      2.23341800
H      -3.14991900     -0.62088600      2.22578400
H      -5.96661700     -2.48141000      1.07892400
H      -5.12540100     -1.39657500      2.17618000
H      -4.23131700     -2.70832900      1.37730200
H      -5.63222300     -0.58503500     -1.73780500
H      -4.64308400     -2.06118000     -1.75981500
H      -6.23832800     -2.05077600     -0.98034100
H      -3.68420000      0.23074200     -1.96766700
H      -1.68672400      1.61320400     -1.92070200
H       2.13684900      1.98018200      1.90530400
H       4.13190900      0.60400900      1.78199000
H       6.01437400     -0.24775100      1.24282100
H       5.12784100     -1.66170900      1.85330000
H       6.47524400     -1.86063600      0.71529500
H       4.63305500     -1.88139600     -2.14641700
H       3.99966600     -2.99796600     -0.91743900
H       5.74558000     -2.72312200     -1.07646100
H       2.65052200     -1.14998900     -1.87124900
H       0.66176500      0.22414800     -1.70589500