26
Photocatalyst_OH
O      -0.05562300      1.91394600      1.41698800
C      -0.00222000      1.39589800      0.07131800
C       1.23822600      0.56729100     -0.12696200
C       1.20491600     -0.79859200      0.18395200
C       2.38214900     -1.55347900      0.13261700
C       3.57269900     -0.95372800     -0.24447800
C       3.61069600      0.39747600     -0.58837400
C       2.44270600      1.14410100     -0.52668800
N      -0.00447600     -1.39061000      0.51915700
C      -1.21168100     -0.79242700      0.18278600
C      -2.38950500     -1.54686800      0.12508800
C      -3.57976300     -0.94364500     -0.24555900
C      -3.61744300      0.41156600     -0.57484300
C      -2.44948000      1.15689300     -0.50678900
C      -1.24451200      0.57469700     -0.11897300
H       0.77215700      2.37171000      1.58852300
H      -0.00110900      2.24073300     -0.62666900
H       2.35430300     -2.61010100      0.37755000
H       4.47782700     -1.54947200     -0.28373500
H       4.54091200      0.85925800     -0.89690400
H       2.45835300      2.19962600     -0.78240300
H      -0.00711400     -2.39336900      0.62360800
H      -2.36172400     -2.60536000      0.36181000
H      -4.48518300     -1.53864100     -0.28991500
H      -4.54852000      0.87750800     -0.87454300
H      -2.46431200      2.21571000     -0.74590400