25
Converted from GJF
O      -0.06051400      2.02707300      1.30752600
C      -0.00237700      1.42311200      0.00484400
C      -1.23583400      0.57978100     -0.13349000
C      -1.17811200     -0.77794900      0.16490600
C      -2.32062600     -1.57312800      0.14353300
C      -3.53720600     -1.00138200     -0.19231900
C      -3.61530700      0.35340700     -0.51590200
C      -2.46843400      1.13144200     -0.48335300
O      -0.00351800     -1.40413800      0.48374000
C       1.17367100     -0.78258000      0.16856300
C       2.31570400     -1.57748000      0.15605300
C       3.53277000     -1.00914800     -0.18630200
C       3.61028300      0.34057400     -0.52840400
C       2.46274600      1.11896000     -0.50492500
C       1.23114000      0.57339000     -0.14060600
H       0.72336300      2.57197500      1.42013300
H      -0.00206300      2.21473200     -0.75255600
H      -2.23658200     -2.62675000      0.38153100
H      -4.42855500     -1.61780800     -0.21277200
H      -4.56622800      0.79562900     -0.78787400
H      -2.51817300      2.18889400     -0.72188800
H       2.23190500     -2.62898000      0.40344700
H       4.42413300     -1.62567900     -0.19971700
H       4.56004300      0.77872500     -0.81070500
H       2.51390600      2.17178900     -0.76532900