38
Converted from GJF
O       2.69168300     -3.23978100      0.19864300
C       2.47844800     -1.93194000      0.46085800
C       3.34596500     -1.16573900     -0.63593800
C       3.20610300      0.32179200     -0.47470000
C       2.30514300      1.03969200     -1.26101800
C       2.14354300      2.40873600     -1.08137300
C       2.87996000      3.07557300     -0.10755800
C       3.78223900      2.36748100      0.68098300
C       3.94261900      0.99903000      0.49760900
C       1.03000200     -1.49537100      0.39761000
C       0.54258800     -0.56443700      1.30869200
C      -0.76300100     -0.10030900      1.21454400
C      -1.61370000     -0.55977500      0.20640400
C      -3.00662100     -0.05640700      0.09781600
C      -4.05929100     -0.92251900     -0.21293200
C      -5.36236800     -0.44967300     -0.31506000
C      -5.63625400      0.89840800     -0.10767400
C      -4.59696100      1.76982400      0.20219300
C      -3.29413400      1.29647200      0.30330500
C      -1.11927300     -1.50452200     -0.69866800
C       0.18601600     -1.96575300     -0.60420800
H       2.93193400     -1.64684600      1.42396400
H       4.38060300     -1.48674300     -0.50968600
H       2.99278300     -1.48944900     -1.61637800
H       1.71923000      0.51949500     -2.01180900
H       1.43978800      2.95415700     -1.70015400
H       2.75338100      4.14282300      0.03544200
H       4.36246700      2.88185100      1.43887700
H       4.64579800      0.44995900      1.11652100
H       1.18922100     -0.19194900      2.09720900
H      -1.12845400      0.61504500      1.94324300
H      -3.86016400     -1.97891100     -0.35809400
H      -6.16653100     -1.13800200     -0.55021900
H      -6.65258300      1.26738200     -0.18696200
H      -4.79918700      2.82358800      0.35861700
H      -2.48871600      1.98808700      0.52633700
H      -1.75585700     -1.86590500     -1.49910800
H       0.55668400     -2.68973500     -1.32224700