35
Alcohol_radical
O      -1.63234600      1.79733800      1.49643600
C      -1.09129800      1.93001400      0.26010600
C      -2.12275000      1.13438800     -0.67121300
C      -2.12772400     -0.35249900     -0.45999000
C      -2.88270100     -0.92699100      0.56315200
C      -2.86284900     -2.30042800      0.77485800
C      -2.08534600     -3.12103300     -0.03769200
C      -1.33371700     -2.55940700     -1.06419700
C      -1.35682100     -1.18444700     -1.27223800
C      -1.11587000      3.40619100     -0.17257000
C       0.28870500      1.28355800      0.14118800
C       1.06507400      1.43791400     -1.01100300
C       2.28381400      0.79650100     -1.14465700
C       2.76215600     -0.02316700     -0.11946300
O       3.96459600     -0.61291200     -0.33886100
C       4.48458000     -1.46650100      0.66701700
C       2.00253600     -0.18524100      1.03643500
C       0.77631300      0.46654500      1.15163000
H      -3.11071700      1.56559600     -0.49962200
H      -1.81534500      1.37980300     -1.69041600
H      -3.48537700     -0.29052000      1.20326700
H      -3.45457800     -2.73140600      1.57489700
H      -2.06814200     -4.19250700      0.12768700
H      -0.72754300     -3.19123500     -1.70388000
H      -0.76172000     -0.75004700     -2.06898400
H      -0.45635700      3.98739300      0.47505000
H      -2.13195000      3.79551700     -0.08653200
H      -0.78152300      3.52701600     -1.20402600
H       0.71605700      2.05437500     -1.83215000
H       2.87916100      0.91653700     -2.04241600
H       5.43705300     -1.83176700      0.28834600
H       3.81765600     -2.31477000      0.85056800
H       4.65092700     -0.92233200      1.60200300
H       2.34401600     -0.81254000      1.84926400
H       0.18578400      0.32309300      2.04815800