25
Converted from GJF
O       1.63547600      2.53665300      0.14969900
C       0.63638300      1.61246900      0.36062300
C      -0.45838600      1.64921600     -0.72080400
C      -1.54135600      0.64115200     -0.43340300
C      -1.56262300     -0.59597700     -1.07810300
C      -2.53545900     -1.54143900     -0.77066000
C      -3.50080800     -1.26291900      0.19129000
C      -3.48985500     -0.03182800      0.83983900
C      -2.51704700      0.91143400      0.52799200
C       1.41318200      0.31692400      0.41401500
C       1.57491000     -0.50011000      1.49808100
C       2.34690100     -1.65601800      1.20588400
C       2.77936900     -1.68186900     -0.08815100
S       2.25136700     -0.30805900     -0.97218700
H       0.18311900      1.74197800      1.35460900
H      -0.00372000      1.46978600     -1.69855700
H      -0.87477100      2.66024700     -0.73158500
H      -0.81150700     -0.82057900     -1.82834800
H      -2.53917700     -2.49652800     -1.28424900
H      -4.25971300     -1.99906600      0.43152700
H      -4.24184600      0.19583700      1.58724200
H      -2.51746200      1.87210200      1.03429100
H       1.13823200     -0.28566800      2.46484100
H       2.56761600     -2.43477700      1.92327400
H       3.38230200     -2.43381600     -0.57526600