39
Alcohol_radical
O       2.01757300      1.60984000     -1.79517900
C       1.23705100      1.86180400     -0.71499700
C       2.16839000      1.42766700      0.51186200
C       2.39825000     -0.05270500      0.61924100
C       1.61364600     -0.82946400      1.47200300
C       1.80002200     -2.20528200      1.55418500
C       2.77847200     -2.82282300      0.78266800
C       3.57159200     -2.05591000     -0.06648300
C       3.38137900     -0.68151000     -0.14562400
C       0.97691100      3.37351500     -0.59292600
C      -0.03998400      1.02149900     -0.69571500
C      -1.00115800      1.22137900      0.30388400
C      -2.12934000      0.42149800      0.38206100
O      -3.09607000      0.54592900      1.32332500
C      -2.93758200      1.54948700      2.31130700
C      -2.32168800     -0.61014300     -0.56337600
O      -3.44898300     -1.34693600     -0.41455600
C      -3.67382800     -2.40413800     -1.33152500
C      -1.37283900     -0.79892300     -1.55474000
C      -0.23641400      0.01167500     -1.61741400
H       3.10879700      1.97267900      0.41093000
H       1.65082100      1.80383000      1.39726100
H       0.84295300     -0.35380100      2.06981100
H       1.17963900     -2.79442900      2.22045600
H       2.92479800     -3.89547900      0.84362100
H       4.33920100     -2.52969900     -0.66837300
H       3.99684700     -0.08859100     -0.81473700
H       1.92814200      3.90881700     -0.58601400
H       0.43392900      3.61419700      0.32230900
H       0.38433100      3.71168500     -1.44534500
H      -0.85426300      1.99787600      1.04290600
H      -3.80873000      1.47212300      2.95867300
H      -2.03065600      1.38480000      2.90206500
H      -2.90664300      2.54756000      1.86280400
H      -2.87261900     -3.14840400     -1.28247300
H      -3.76212900     -2.02881100     -2.35597600
H      -4.61364500     -2.86449800     -1.03339300
H      -1.49981500     -1.58196800     -2.29061600
H       0.50161200     -0.16430600     -2.38908100