31
Alcohol_radical
O      -0.50006400      3.29192200     -0.57170400
C      -0.90999600      1.98369900     -0.59940000
C      -2.10184000      1.68968700      0.32913000
C      -2.48277400      0.23271800      0.27465400
C      -2.00485500     -0.66958700      1.22637300
C      -2.30869000     -2.02379600      1.13877200
C      -3.09428900     -2.49707800      0.09239600
C      -3.57649600     -1.60693700     -0.86196300
C      -3.27196300     -0.25296600     -0.76931800
C       0.37540300      1.25428900     -0.20230600
C       1.00059000      0.40866000     -1.13445600
C       2.12681500     -0.25039400     -0.71228300
O       2.92048500     -1.10993200     -1.41088700
C       3.79439700     -1.68673400     -0.44150600
O       3.78002200     -0.82108200      0.69511100
C       2.65081000     -0.07480400      0.56444000
C       2.07164700      0.77293800      1.47859800
C       0.91539300      1.44530800      1.06855100
H      -1.15925300      1.67261500     -1.62506500
H      -1.84658500      1.98880800      1.34835800
H      -2.93859900      2.31340600      0.00219900
H      -1.38658200     -0.30713900      2.04140300
H      -1.93160900     -2.71017000      1.88897300
H      -3.33217500     -3.55265200      0.02311500
H      -4.19326200     -1.96630000     -1.67835000
H      -3.65459000      0.43710900     -1.51538900
H       0.60069800      0.26721000     -2.13054700
H       3.41442600     -2.67118100     -0.14915900
H       4.80251700     -1.73941000     -0.84575000
H       2.49012400      0.91372500      2.46654400
H       0.42644500      2.11669700      1.76342700