36
Converted from GJF
O       0.64138100      2.95551900     -1.45825000
C       1.15187100      1.71655900     -1.17057700
C       2.12399300      1.72018600      0.02446900
C       2.62604700      0.33087500      0.32107900
C       3.65878200     -0.22385400     -0.43686300
C       4.08961600     -1.52647100     -0.20881700
C       3.49155100     -2.29489600      0.78494200
C       2.46326200     -1.75130100      1.54852300
C       2.03403900     -0.44923500      1.31560100
C      -0.12259300      0.90646900     -0.92433300
C      -0.49395600     -0.09364800     -1.80574200
C      -1.62655300     -0.86649000     -1.55085700
C      -2.40657900     -0.62425300     -0.42867400
O      -3.51387700     -1.31764200     -0.09547900
C      -3.92195400     -2.37769700     -0.94711400
C      -2.04600200      0.41907900      0.45787000
O      -2.86094400      0.59155900      1.52268300
C      -2.52463100      1.60248700      2.45899900
C      -0.91860700      1.17612800      0.19808500
H       1.65097200      1.27887800     -2.04796600
H       2.95909700      2.37828900     -0.23131900
H       1.62440200      2.14908900      0.89622400
H       4.13294700      0.37208500     -1.21100100
H       4.89504700     -1.94031400     -0.80552900
H       3.82721300     -3.30994700      0.96563000
H       1.99374500     -2.34197300      2.32746600
H       1.22716900     -0.03308900      1.91033300
H       0.10530200     -0.29909100     -2.68500500
H      -1.88734800     -1.66057800     -2.23745700
H      -4.81836800     -2.79499900     -0.49373800
H      -3.15119100     -3.15164700     -1.01023200
H      -4.15829000     -2.00930300     -1.94980900
H      -1.54475800      1.41348200      2.90886200
H      -3.29089100      1.56181400      3.23014200
H      -2.53071800      2.59253800      1.99269500
H      -0.63653300      1.97564400      0.86951400