31
Alcohol_radical
O      -0.39806600      3.18573100      0.12921200
C       0.23279300      1.98648100      0.33515600
C       1.35036900      1.70512200     -0.68789900
C       2.00524300      0.37395100     -0.42433000
C       1.61503800     -0.76848800     -1.12477700
C       2.18172200     -2.00602200     -0.83992000
C       3.14693000     -2.11959100      0.15575100
C       3.54388000     -0.98753700      0.86047900
C       2.97626600      0.24869500      0.57069800
C      -0.92802300      0.98969900      0.25424000
C      -1.28816100      0.24303800      1.37260100
C      -2.30478200     -0.69978100      1.28526100
C      -3.00292400     -0.89771500      0.09315500
C      -4.12559200     -1.89652100      0.00752500
C      -2.64906700     -0.12481100     -1.01559000
C      -1.62864400      0.81172500     -0.93925200
H       0.64245300      1.92798800      1.35468600
H       0.93172600      1.74190700     -1.69633900
H       2.08465800      2.51134400     -0.60557900
H       0.85808500     -0.68701400     -1.89822300
H       1.86898200     -2.88271100     -1.39640300
H       3.58969600     -3.08388000      0.37876000
H       4.29890800     -1.06607400      1.63494200
H       3.29360900      1.12908200      1.12155900
H      -0.75744100      0.38042000      2.30848400
H      -2.55791600     -1.29213700      2.15857500
H      -5.09136500     -1.39830600      0.13751100
H      -4.03829500     -2.65929200      0.78332400
H      -4.14051400     -2.39168600     -0.96574200
H      -3.17871200     -0.26095100     -1.95301600
H      -1.36964200      1.39600400     -1.81482600