34
Alcohol_radical
O      -1.67228700      3.27888100     -0.70860600
C      -1.48881300      1.94089300     -0.74054900
C      -2.55768500      1.37188000      0.29851800
C      -2.48900600     -0.12816000      0.35266600
C      -1.73948300     -0.77019000      1.33845300
C      -1.63713900     -2.15635800      1.35935500
C      -2.28177700     -2.91752200      0.38957200
C      -3.03293700     -2.28564100     -0.59708600
C      -3.13402700     -0.89936000     -0.61451800
C      -0.09457100      1.48205400     -0.37186100
C       0.58033600      2.07890000      0.72108700
C       1.80534300      1.61859100      1.11653300
C       2.42609700      0.53306400      0.44303700
C       1.75553700     -0.06240700     -0.65825200
C       2.36895300     -1.15030900     -1.33171800
C       3.59021600     -1.62175400     -0.92818600
C       4.25903800     -1.02740600      0.16733500
C       3.69094000      0.02477100      0.83582300
C       0.48788200      0.44323600     -1.04581500
H      -1.79553900      1.52423500     -1.71312000
H      -3.53905800      1.71590900     -0.03004100
H      -2.33716800      1.81297500      1.27196300
H      -1.22359300     -0.17836700      2.08767100
H      -1.05074200     -2.64187300      2.13137800
H      -2.20108100     -3.99863000      0.40316300
H      -3.54145800     -2.87302300     -1.35341700
H      -3.71846500     -0.41037900     -1.38799600
H       0.11218600      2.90637900      1.24336400
H       2.31848800      2.07684200      1.95579900
H       1.85320600     -1.60467100     -2.17154200
H       4.05025100     -2.45458800     -1.44805700
H       5.22542300     -1.40999100      0.47584200
H       4.20146500      0.48260400      1.67694600
H      -0.02905000     -0.02416700     -1.87947500