28
Alcohol_radical
O       1.46733200      2.85856200      0.16224500
C       0.70254700      1.77898100      0.43778300
C      -0.48856400      1.86370400     -0.61649800
C      -1.45035300      0.72522700     -0.42237300
C      -1.36836600     -0.41812700     -1.21679800
C      -2.23544200     -1.48558500     -1.01230900
C      -3.19266900     -1.42307400     -0.00487900
C      -3.28157700     -0.28605000      0.79300500
C      -2.41472600      0.78019400      0.58447400
C       1.42021100      0.44825800      0.33643500
C       2.30809800      0.19929400     -0.70737800
C       2.92152400     -1.04217600     -0.82444600
C       2.64996700     -2.04551600      0.10220400
C       1.76657400     -1.79953900      1.14768300
C       1.15557600     -0.55491400      1.26395600
H       0.21497400      1.88687000      1.42014500
H      -0.97822400      2.82762400     -0.47260500
H      -0.04570900      1.83847000     -1.61350300
H      -0.61401000     -0.47502500     -1.99484700
H      -2.16125300     -2.36773600     -1.63837400
H      -3.86810600     -2.25557200      0.15712300
H      -4.02812500     -0.22890000      1.57726000
H      -2.48710800      1.66497000      1.20970300
H       2.51840600      0.98138400     -1.42948100
H       3.61156700     -1.22874900     -1.63984400
H       3.12779300     -3.01444000      0.01013800
H       1.55354000     -2.57544600      1.87448000
H       0.46080100     -0.36600900      2.07669200