36
Converted from GJF
O       0.42209200     -0.79028100      1.58056400
C       0.09500900      0.01059300      0.53242400
C       0.95333000     -0.22277600     -0.73587600
C       2.42835800     -0.08114600     -0.47595800
C       3.22751200     -1.19761500     -0.23160300
C       4.58525600     -1.05659300      0.03864300
C       5.16308400      0.20827400      0.07076800
C       4.37514700      1.33016700     -0.17040200
C       3.01945600      1.18363800     -0.44138900
C      -1.38915000      0.04113400      0.22226900
C      -2.06241100      1.25872600      0.08429700
O      -1.30655200      2.36898300      0.27524600
C      -1.91857200      3.64222000      0.14263900
C      -3.42090100      1.29298000     -0.23636400
C      -4.09305200      0.09369000     -0.42681300
C      -3.44930600     -1.13107800     -0.31058500
C      -2.09145200     -1.15077200      0.01258100
O      -1.36355900     -2.28595200      0.13792700
C      -1.99806400     -3.53258100     -0.09619600
H       0.36090700      1.01878000      0.91638800
H       0.62850500      0.50415000     -1.48553800
H       0.71874700     -1.21926500     -1.11759200
H       2.78132600     -2.18671000     -0.25390600
H       5.19218300     -1.93602800      0.22426700
H       6.22113400      0.31974500      0.28008300
H       4.81789700      2.31998600     -0.15101300
H       2.41050900      2.06255500     -0.63290600
H      -1.13319300      4.37095100      0.33169600
H      -2.72010100      3.77276400      0.87548000
H      -2.31387500      3.78640200     -0.86708900
H      -3.95111800      2.22944400     -0.33898100
H      -5.14826900      0.11368600     -0.67473000
H      -4.00180100     -2.04631700     -0.47110900
H      -2.38629800     -3.59308700     -1.11732600
H      -1.22870000     -4.28896300      0.04397200
H      -2.80916400     -3.70326100      0.61779400