34
Alcohol_radical
O      -0.30343400      3.32325500     -1.22610000
C       0.06744100      2.05286200     -0.94671600
C       1.32511600      2.21021600      0.01878600
C       1.92556000      0.87563400      0.36045100
C       1.49046400      0.16236000      1.47753900
C       2.00588000     -1.09759000      1.75665400
C       2.96732000     -1.65859400      0.92185400
C       3.41569600     -0.94988100     -0.18834900
C       2.89605600      0.30888100     -0.46609100
C      -1.01855700      1.20925800     -0.29750700
C      -1.12661300     -0.19735000     -0.52690100
C      -2.12842400     -0.92754100      0.17552700
C      -2.23762100     -2.32997500     -0.01916700
C      -1.39344900     -2.99016500     -0.86866000
C      -0.40060500     -2.27092800     -1.57107100
C      -0.27297200     -0.91798700     -1.40761900
C      -2.99683600     -0.24970900      1.06778700
C      -2.87708800      1.09876700      1.26117300
C      -1.88056700      1.82343100      0.57554600
H       0.47424700      1.59203300     -1.85801500
H       2.04620100      2.84598000     -0.49621100
H       0.97571000      2.72647300      0.91469600
H       0.73089200      0.59187700      2.12279600
H       1.65475900     -1.64314600      2.62540900
H       3.36804800     -2.64270100      1.13749800
H       4.16908500     -1.37837800     -0.83983200
H       3.24255100      0.85559600     -1.33799000
H      -3.00563200     -2.87058200      0.52459700
H      -1.48257200     -4.06174600     -1.00653800
H       0.26733600     -2.79625400     -2.24439900
H       0.50783400     -0.40379500     -1.95218300
H      -3.75468100     -0.81980400      1.59509400
H      -3.54118800      1.61674800      1.94371100
H      -1.78992300      2.89152200      0.74075600