34
Alcohol_radical
O      -2.11827700     -3.25533900     -0.39565500
C      -1.93620300     -1.93120100     -0.58499500
C      -2.88683300     -1.24052100      0.49166900
C      -2.78600800      0.25661000      0.40619300
C      -3.48154600      0.95559300     -0.58084600
C      -3.35639700      2.33537600     -0.69125000
C      -2.53095000      3.03288100      0.18599800
C      -1.83597300      2.34410600      1.17471300
C      -1.96201100      0.96372000      1.28155600
C      -0.50715600     -1.45682600     -0.41521200
C      -0.00546600     -0.45685000     -1.24321900
C       1.27926000      0.03330300     -1.05653400
C       2.07732100     -0.48065500     -0.03470400
C       3.46048000      0.01341700      0.21138100
O       3.82155800      0.97546600     -0.63739100
C       5.13926400      1.51285900     -0.47499300
O       4.18643700     -0.40535500      1.08525700
C       1.57852600     -1.49011400      0.78982100
C       0.29432500     -1.97460800      0.59949700
H      -2.34079400     -1.61610200     -1.56001700
H      -2.58148400     -1.59966700      1.47577800
H      -3.90113100     -1.58610100      0.28898000
H      -4.12497700      0.41499300     -1.26837200
H      -3.90426000      2.86684500     -1.46126800
H      -2.43194600      4.10910600      0.10008200
H      -1.19245100      2.88130400      1.86234500
H      -1.40874000      0.42737900      2.04568100
H      -0.62696200     -0.04871100     -2.03352400
H       1.66175600      0.81340000     -1.70185800
H       5.88732300      0.73113800     -0.61117900
H       5.24862200      1.95732900      0.51482100
H       5.24068800      2.27294300     -1.24535800
H       2.20491500     -1.88665700      1.57972700
H      -0.09208900     -2.75792100      1.24203000