32
Alcohol_radical
O       0.39658600      3.28779600     -0.31483200
C       0.82938000      1.99385400     -0.44931300
C       1.95102900      1.61853300      0.53687000
C       2.38380400      0.18766000      0.34718400
C       1.85566100     -0.83336300      1.13896800
C       2.21594000     -2.15926100      0.92434900
C       3.10939600     -2.48467500     -0.09139300
C       3.64229800     -1.47546100     -0.88710800
C       3.28090500     -0.15044400     -0.66751700
C      -0.46855900      1.21549900     -0.23138200
C      -1.04520000      0.50402600     -1.27730600
C      -2.20167100     -0.24393300     -1.08529300
C      -2.80963200     -0.25792900      0.17097000
O      -3.93158400     -0.94893000      0.46658600
C      -4.54346700     -1.71829500     -0.55856800
C      -2.25288000      0.48190400      1.22089500
C      -1.09989300      1.21345400      1.01785800
H       1.16403100      1.79351400     -1.47835900
H       2.79100700      2.29481600      0.35527800
H       1.60629300      1.79058700      1.55920300
H       1.15448500     -0.58703800      1.92986000
H       1.79840100     -2.93915300      1.55164400
H       3.39153600     -3.51801700     -0.25947800
H       4.34296600     -1.71927000     -1.67810900
H       3.70397000      0.63292100     -1.28927700
H      -0.57835900      0.51082800     -2.25619800
H      -2.61148100     -0.80516200     -1.91419900
H      -3.86574800     -2.49422200     -0.92651100
H      -4.86435300     -1.08336500     -1.38958500
H      -5.41387500     -2.18455600     -0.10230900
H      -2.74103800      0.46701900      2.18808200
H      -0.68051400      1.78074700      1.84064300