34
Converted from GJF
O      -1.06121300      3.29812300     -0.63806800
C      -1.33644200      1.95485700     -0.63605700
C      -2.51778000      1.57331400      0.27524000
C      -2.76637600      0.08731300      0.24636300
C      -2.22149400     -0.75005000      1.22123100
C      -2.40459700     -2.12717100      1.15980100
C      -3.13457900     -2.68883700      0.11689000
C      -3.68253200     -1.86411500     -0.86046100
C      -3.49861900     -0.48698000     -0.79411900
C      -0.00046800      1.36366000     -0.18195600
C       0.49044700      1.62349000      1.09970600
C       1.67720900      1.04465700      1.51653300
C       2.39587800      0.21587200      0.66097700
C       1.92856800     -0.00803900     -0.64272800
O       2.60513500     -0.79375000     -1.52398900
C       3.95694800     -1.05089700     -1.14791700
C       4.02516800     -1.42439700      0.31447900
O       3.54397800     -0.34707800      1.11803200
C       0.73733900      0.57187400     -1.05505000
H      -1.52687500      1.59072100     -1.65681200
H      -2.31265700      1.91559200      1.29227200
H      -3.39968800      2.11190700     -0.08265300
H      -1.64658900     -0.31820500      2.03408200
H      -1.97702600     -2.76227500      1.92787000
H      -3.27858500     -3.76239000      0.06807600
H      -4.25671900     -2.29287700     -1.67441900
H      -3.93236600      0.15137700     -1.55809800
H      -0.06111700      2.26122100      1.77940600
H       2.06265400      1.21504000      2.51486900
H       4.56315700     -0.16024100     -1.34381700
H       4.30469000     -1.86975100     -1.77541100
H       3.42203100     -2.31698300      0.51001300
H       5.05294700     -1.60747700      0.62323400
H       0.39091500      0.37867800     -2.06400200