31
Converted from GJF
O       0.00000000     -2.95087000      0.00003300
C       0.00000000     -1.62626800      0.00001400
C       1.30723400     -1.00499800     -0.00000200
C       1.46975200      0.40253300     -0.00000400
C       2.76891700      0.91504400     -0.00001500
C       3.89020100      0.09204700     -0.00001900
C       3.72019500     -1.29182400     -0.00001300
C       2.45012400     -1.83715600     -0.00000500
Si      0.00000000      1.56222700      0.00000800
C       0.00000000      2.64027700     -1.53276600
C       0.00000000      2.64025100      1.53280700
C      -1.46975200      0.40253300     -0.00000400
C      -2.76891700      0.91504400     -0.00001500
C      -3.89020100      0.09204700     -0.00001900
C      -3.72019500     -1.29182400     -0.00001300
C      -2.45012400     -1.83715600     -0.00000500
C      -1.30723400     -1.00499800     -0.00000200
H       2.91387500      1.99214400     -0.00002200
H       4.88493900      0.52238700     -0.00002200
H       4.58388400     -1.94729600     -0.00001600
H       2.33367900     -2.91568300     -0.00000600
H       0.88442000      3.28450600     -1.55095100
H       0.00000000      2.03069900     -2.44010000
H      -0.88442000      3.28450600     -1.55095100
H       0.00000000      2.03067600      2.44014200
H       0.88441900      3.28448400      1.55098900
H      -0.88441800      3.28448400      1.55098800
H      -2.91387500      1.99214400     -0.00002200
H      -4.88493900      0.52238700     -0.00002200
H      -4.58388400     -1.94729600     -0.00001600
H      -2.33367900     -2.91568300     -0.00000600