45
Converted from GJF
O      -4.17673600     -0.09044500      0.01676600
C      -2.85329100     -0.09597900      0.04263600
C      -2.21582600     -0.99280400     -0.89689400
C      -0.80730600     -1.08548900     -1.01059000
C      -0.27465500     -1.98837800     -1.93356500
C      -1.08200600     -2.78442800     -2.73676800
C      -2.46873900     -2.68306900     -2.62335700
C      -3.03200800     -1.80328500     -1.71924300
Si      0.32303800     -0.00479300      0.00923500
C       1.25810400      1.21301800     -1.07532400
C       0.77213800      2.50972300     -1.28084000
C       1.42454300      3.39425900     -2.13404300
C       2.57787400      2.99411500     -2.80058100
C       3.07661600      1.70885000     -2.61024800
C       2.42211100      0.82969000     -1.75452700
C       1.54582600     -1.05508300      0.97272800
C       2.77078600     -0.53166500      1.40523100
C       3.64296600     -1.29106100      2.17823000
C       3.30498500     -2.59395100      2.52990200
C       2.09372000     -3.13295900      2.10757700
C       1.22367800     -2.36831200      1.33768700
C      -0.84220500      0.91441700      1.14141900
C      -0.33932200      1.77100400      2.12326900
C      -1.17255000      2.49035200      2.97115100
C      -2.55532200      2.35608400      2.84401300
C      -3.08931900      1.51425900      1.88752100
C      -2.24659300      0.77850300      1.02278300
H       0.80450300     -2.07465500     -2.02714200
H      -0.63879600     -3.47602900     -3.44364500
H      -3.11204700     -3.29687900     -3.24375800
H      -4.11188100     -1.74021800     -1.63882700
H      -0.12548200      2.83754800     -0.76489400
H       1.03389000      4.39580000     -2.27705100
H       3.08862900      3.68228500     -3.46514100
H       3.97714900      1.39344700     -3.12563600
H       2.83198600     -0.16593500     -1.61101900
H       3.05535600      0.47969700      1.13038100
H       4.58733600     -0.86801600      2.50267900
H       3.98517400     -3.18892600      3.12943100
H       1.82790100     -4.14936700      2.37663700
H       0.28326000     -2.80387800      1.01290600
H       0.73655200      1.88370000      2.22665700
H      -0.75242300      3.14881400      3.72239700
H      -3.21857000      2.91066100      3.49828600
H      -4.16639600      1.41573300      1.80532200