22
Converted from GJF
O       0.00000000      2.80249800      0.00001500
C       0.00000000      1.51620700      0.00000900
C      -1.17551500      0.67183800      0.00000000
C      -0.72851100     -0.67589800      0.00000300
C      -1.65977400     -1.70490900      0.00000100
C      -3.01649300     -1.39031400     -0.00000300
C      -3.44733100     -0.05776400     -0.00000600
C      -2.53647600      0.98891000     -0.00000500
C       0.72851100     -0.67589800      0.00000300
C       1.17551500      0.67183800      0.00000000
C       2.53647600      0.98891000     -0.00000500
C       3.44733100     -0.05776400     -0.00000600
C       3.01649300     -1.39031400     -0.00000300
C       1.65977400     -1.70490900      0.00000100
H      -1.33713900     -2.74036600      0.00000100
H      -3.75048000     -2.18779700     -0.00000500
H      -4.50919600      0.15990200     -0.00000900
H      -2.87336000      2.01847000     -0.00000500
H       2.87336000      2.01847000     -0.00000400
H       4.50919600      0.15990200     -0.00000900
H       3.75048000     -2.18779700     -0.00000500
H       1.33713900     -2.74036600      0.00000100