30
Photocatalyst_triplet
O      -1.75426000      2.47476300     -0.06997600
C      -1.32018000      1.22674500     -0.01393500
C       0.08251000      0.97420500      0.02790400
C       0.61557300     -0.29442400     -0.20569600
C       2.00835300     -0.52173500     -0.16038200
C       2.56169300     -1.81182100     -0.38223900
C       3.91771800     -2.00872900     -0.34027600
C       4.79051900     -0.92950900     -0.07628200
C       4.28420100      0.32937300      0.13810800
C       2.89131100      0.56377600      0.09945000
C       2.33231400      1.85864500      0.30851000
C       0.98807500      2.06261800      0.27332200
C      -2.42418600      0.26573800      0.02086700
C      -2.36393900     -0.87575900      0.83910300
C      -3.41906800     -1.77255500      0.85873000
C      -4.56388500     -1.53465300      0.09790700
C      -4.64610900     -0.38912200     -0.68712100
C      -3.58928000      0.50931300     -0.72822400
H      -0.03654000     -1.12617900     -0.44568100
H       1.89186700     -2.64135600     -0.58436000
H       4.32678200     -2.99842200     -0.51017000
H       5.86072000     -1.09902800     -0.04521200
H       4.95056400      1.16221000      0.33883400
H       3.00098300      2.69003000      0.50686300
H       0.58663000      3.05398200      0.45086100
H      -1.49344300     -1.04874500      1.46023300
H      -3.35672400     -2.65673300      1.48276700
H      -5.38859300     -2.23733900      0.12408000
H      -5.53433700     -0.19732300     -1.27804500
H      -3.64755200      1.38816100     -1.35884300