28
Photocatalyst_triplet
O      -0.00000300     -2.39782800      0.00006300
C      -0.00000100     -1.06401400      0.00003000
C       1.33212900     -0.49835300     -0.01499600
C       1.62494600      0.85659100      0.28220500
C       2.95378300      1.26407000      0.28848500
C       4.00340100      0.38378300      0.03760800
C       3.72061800     -0.94689600     -0.25200700
C       2.40719200     -1.37954100     -0.28418300
C       0.54262000      1.86505300      0.54490000
C      -0.54260800      1.86506900     -0.54484300
C      -1.62493700      0.85660000     -0.28218500
C      -1.33213200     -0.49835000      0.01500500
C      -2.40720400     -1.37953800      0.28415200
C      -3.72063000     -0.94689200      0.25193900
C      -4.00340100      0.38378800     -0.03767200
C      -2.95377400      1.26407800     -0.28850500
H       3.17312000      2.30607100      0.49865500
H       5.02719600      0.73871200      0.05804600
H       4.52132200     -1.64593200     -0.46469100
H       2.19708200     -2.41199700     -0.53945400
H       0.07394400      1.67318400      1.51705000
H       0.99871500      2.85489000      0.60719700
H      -0.99870400      2.85490700     -0.60710900
H      -0.07392800      1.67323400     -1.51699800
H      -2.19710100     -2.41199900      0.53940900
H      -4.52134000     -1.64593100      0.46458800
H      -5.02719400      0.73872200     -0.05813200
H      -3.17310700      2.30608000     -0.49867400