31
Photocatalyst_triplet
O       0.77226700      2.92580100     -0.16324800
C       0.72881600      1.65857500     -0.09119900
C      -0.59462800      0.98300800     -0.03858400
C      -0.84072100     -0.24037100     -0.67208200
C      -2.10435300     -0.81022800     -0.65272300
C      -3.14420500     -0.16302700      0.00801000
C      -4.52186500     -0.75199900     -0.00797900
F      -5.24946700     -0.31272800     -1.06140700
F      -5.22918100     -0.43812300      1.09299500
F      -4.50875000     -2.09454100     -0.09472600
C      -2.92237900      1.06445200      0.62822100
C      -1.65971900      1.63247800      0.59663700
C       1.95881800      0.93390300     -0.00053500
C       2.06902800     -0.45861700      0.43177300
C       3.25778900     -1.11120900      0.40466500
C       4.44442400     -0.42339800      0.00450500
O       5.65018700     -0.97320700     -0.07711800
C       5.82015000     -2.36568500      0.20165600
C       4.38108800      0.97756200     -0.30028400
C       3.20315300      1.63893700     -0.27822200
H      -0.04647300     -0.74567600     -1.20950600
H      -2.27768000     -1.75390100     -1.15538000
H      -3.73165800      1.57301600      1.13830800
H      -1.48432800      2.59013200      1.07138800
H       1.18780200     -0.97383100      0.78827300
H       3.30526900     -2.14650000      0.71707000
H       6.87237100     -2.57140000      0.02631700
H       5.56924100     -2.57906600      1.24239500
H       5.20597500     -2.96717000     -0.47118400
H       5.30677400      1.48276200     -0.55054300
H       3.14728300      2.69313000     -0.50914000