23
Converted from GJF
O       0.00000000     -2.65507800      0.00000000
C       0.00000000     -1.37684300      0.00000000
C       0.00000000     -0.66115300      1.26388200
C       0.00000000      0.75896200      1.38222400
C       0.00000000      1.40905600      2.62159700
C       0.00000000      0.66811200      3.79156800
C       0.00000000     -0.72590800      3.70126900
C       0.00000000     -1.37400400      2.47344200
S       0.00000100      1.80221700      0.00000000
C       0.00000000      0.75896200     -1.38222400
C       0.00000000      1.40905600     -2.62159700
C       0.00000000      0.66811200     -3.79156800
C       0.00000000     -0.72590800     -3.70126900
C       0.00000000     -1.37400400     -2.47344200
C       0.00000000     -0.66115300     -1.26388200
H       0.00000000      2.49309600      2.65857100
H       0.00000000      1.16367200      4.75351400
H      -0.00000100     -1.31933900      4.60906300
H       0.00000000     -2.45471800      2.42201900
H       0.00000000      2.49309600     -2.65857100
H       0.00000000      1.16367200     -4.75351400
H      -0.00000100     -1.31933900     -4.60906300
H       0.00000000     -2.45471800     -2.42201900