24
Photocatalyst_triplet
O      -0.00004900      2.70759900      0.00000000
C       0.00000200      1.46562400      0.00000000
C       0.00000000      0.69784000      1.24388200
C       0.00001500     -0.69784000      1.24388200
C       0.00001500     -1.39430100      2.47177800
C       0.00000000     -0.70404000      3.65888200
C      -0.00001700      0.70403900      3.65888200
C      -0.00001700      1.39430000      2.47177800
C       0.00003000     -1.46562300      0.00000000
C       0.00001500     -0.69784000     -1.24388200
C       0.00001500     -1.39430100     -2.47177800
C       0.00000000     -0.70404000     -3.65888200
C      -0.00001700      0.70403900     -3.65888200
C      -0.00001700      1.39430000     -2.47177800
C       0.00000000      0.69784000     -1.24388200
O       0.00003900     -2.70759800      0.00000000
H       0.00002800     -2.47799300      2.44810300
H       0.00000000     -1.24567400      4.59748800
H      -0.00003000      1.24567300      4.59748800
H      -0.00002900      2.47799300      2.44810300
H       0.00002800     -2.47799300     -2.44810300
H       0.00000000     -1.24567400     -4.59748800
H      -0.00003000      1.24567300     -4.59748800
H      -0.00002900      2.47799300     -2.44810300