24
Converted from GJF
O      -0.00000100      2.26102900     -0.00003500
C      -0.00000100      0.93676600      0.00002500
C      -1.30507000      0.31382700      0.02064000
C      -1.49615400     -0.97248800      0.56601700
C      -2.75727800     -1.54235700      0.58670100
C      -3.86227900     -0.84349100      0.09881700
C      -3.69062700      0.44023900     -0.41251700
C      -2.43151600      1.01877300     -0.45423700
C       1.30507200      0.31382700     -0.02060900
C       1.49614700     -0.97247900     -0.56600900
C       2.75727000     -1.54235000     -0.58671900
C       3.86227800     -0.84349300     -0.09883800
C       3.69063400      0.44022900      0.41251700
C       2.43152400      1.01876400      0.45426200
H      -0.65641800     -1.51149700      0.98723100
H      -2.88503900     -2.53555400      1.00238200
H      -4.84723600     -1.29472500      0.12401100
H      -4.54359800      0.99227100     -0.79099200
H      -2.30541800      2.00808600     -0.87812900
H       0.65640500     -1.51148000     -0.98722100
H       2.88502500     -2.53554100     -1.00241600
H       4.84723400     -1.29472900     -0.12405000
H       4.54361200      0.99225400      0.79099000
H       2.30543300      2.00807100      0.87817200