24
Photocatalyst_triplet
O      -0.00114300      2.65993300     -0.00422600
C       0.00038600      1.33642100     -0.00106000
C       1.30226300      0.71227300      0.00048300
C       2.42419000      1.41543300     -0.48574400
C       3.68393900      0.84169900     -0.46618900
C       3.83995900     -0.44214600      0.04129200
Cl      5.42803800     -1.17527800      0.05697000
C       2.75473400     -1.15359300      0.54581400
C       1.49936100     -0.57530300      0.53936300
C      -1.30235300      0.71253200     -0.00210600
C      -1.50106400     -0.57208900     -0.54692900
C      -2.75630600     -1.15073500     -0.55158000
C      -3.83984600     -0.44164400     -0.04018600
Cl     -5.42771600     -1.17503000     -0.05385000
C      -3.68228900      0.83979700      0.47278500
C      -2.42243500      1.41345500      0.49101800
H       2.30018200      2.40649600     -0.90480700
H       4.53681300      1.38486500     -0.85347600
H       2.89500100     -2.14547800      0.95682200
H       0.66879900     -1.11753000      0.97343600
H      -0.67169000     -1.11197900     -0.98618600
H      -2.89787600     -2.14071900     -0.96666500
H      -4.53390700      1.38110600      0.86539600
H      -2.29687500      2.40240600      0.91447200