32
Photocatalyst_triplet
O      -0.00000100      2.80151700      0.00000200
C       0.00000000      1.47253000      0.00000000
C      -1.30163400      0.85062600     -0.03586800
C      -1.52692100     -0.42835800      0.50590100
C      -2.78246900     -1.01424400      0.47476200
C      -3.86550700     -0.31798400     -0.06979300
O      -5.12843000     -0.80046200     -0.14166300
C      -5.38283500     -2.10219200      0.36295800
C      -3.66781700      0.97009700     -0.58050200
C      -2.41490100      1.54509000     -0.56484300
C       1.30163400      0.85062600      0.03586800
C       1.52692100     -0.42835900     -0.50590000
C       2.78246900     -1.01424500     -0.47476100
C       3.86550700     -0.31798400      0.06979200
O       5.12843000     -0.80046200      0.14166200
C       5.38283500     -2.10219300     -0.36295800
C       3.66781800      0.97009800      0.58050000
C       2.41490200      1.54509100      0.56484100
H      -0.71088600     -0.96852000      0.97063900
H      -2.90775500     -2.00396300      0.89361300
H      -4.79571000     -2.85516100     -0.17159100
H      -6.44228100     -2.28569000      0.19727500
H      -5.16757800     -2.15999000      1.43424300
H      -4.51434600      1.50133600     -0.99996100
H      -2.27788800      2.53382100     -0.98643800
H       0.71088600     -0.96852200     -0.97063600
H       2.90775400     -2.00396400     -0.89361000
H       5.16757700     -2.15999200     -1.43424200
H       6.44228100     -2.28569000     -0.19727500
H       4.79571000     -2.85516100      0.17159300
H       4.51434700      1.50133800      0.99995700
H       2.27788900      2.53382200      0.98643600