40
Converted from GJF
O      -0.00000300      2.89869000     -0.00000400
C       0.00000300      1.61047200      0.00006700
C      -1.26576900      0.89747000     -0.00132000
C      -2.44621900      1.62207600     -0.34751100
C      -3.69067700      1.04925600     -0.33977600
C      -3.87348800     -0.30753900      0.04540100
N      -5.10461100     -0.89136800      0.03552300
C      -5.26800000     -2.27417500      0.45141700
C      -6.27805400     -0.13012600     -0.35961800
C      -2.71466700     -1.02603700      0.45054900
C      -1.47194700     -0.44723700      0.42858600
C       1.26577200      0.89747000      0.00141200
C       1.47192500     -0.44725700     -0.42844800
C       2.71464100     -1.02605900     -0.45045800
C       3.87348800     -0.30754600     -0.04540800
N       5.10461100     -0.89137800     -0.03558100
C       5.26797000     -2.27420200     -0.45142600
C       6.27808200     -0.13012000      0.35944800
C       3.69070100      1.04926500      0.33972300
C       2.44624400      1.62208800      0.34750700
H      -2.33198400      2.65995700     -0.63273400
H      -4.54212900      1.64904000     -0.63414900
H      -4.65603800     -2.94292100     -0.16061900
H      -6.30966900     -2.56107000      0.33264600
H      -4.99083100     -2.40799400      1.50184300
H      -6.44140000      0.72049800      0.30924000
H      -6.17891000      0.24245500     -1.38327200
H      -7.15225700     -0.77442600     -0.31385600
H      -2.80362800     -2.04495900      0.80362900
H      -0.64117700     -1.02907500      0.80391700
H       0.64113200     -1.02911000     -0.80370700
H       2.80358200     -2.04499600     -0.80350100
H       4.65603800     -2.94291900      0.16067100
H       4.99074400     -2.40806400     -1.50183100
H       6.30964400     -2.56109900     -0.33270000
H       7.15228300     -0.77441900      0.31364200
H       6.17901400      0.24249600      1.38309600
H       6.44137600      0.72048300     -0.30945200
H       4.54217100      1.64906000      0.63401900
H       2.33202900      2.65998100      0.63269200