24
Photocatalyst_triplet
O       0.00000000      2.61220300      0.00000000
C       0.00000000      1.33793900      0.00000000
C       0.00000000      0.58633500      1.24098100
C       0.00000000     -0.84015500      1.22097900
C       0.00000000     -1.59938600      2.39111200
C       0.00000000     -0.95718500      3.62716500
C       0.00000000      0.43334400      3.66676400
C       0.00000000      1.19759600      2.49537000
N       0.00000000     -1.46947000      0.00000000
C       0.00000000     -0.84015500     -1.22097900
C       0.00000000     -1.59938600     -2.39111200
C       0.00000000     -0.95718500     -3.62716500
C       0.00000000      0.43334400     -3.66676400
C       0.00000000      1.19759600     -2.49537000
C       0.00000000      0.58633500     -1.24098100
H       0.00000000     -2.68216500      2.32896200
H       0.00000000     -1.53736500      4.54071400
H       0.00000000      0.93959500      4.62589700
H       0.00000000      2.27902700      2.54192400
H       0.00000000     -2.48371700      0.00000000
H       0.00000000     -2.68216500     -2.32896200
H       0.00000000     -1.53736500     -4.54071400
H       0.00000000      0.93959500     -4.62589700
H       0.00000000      2.27902700     -2.54192400