23
Photocatalyst_triplet
O       0.00000000      2.64214900      0.00000000
C       0.00000000      1.35895200      0.00000000
C       0.00000000      0.60404700      1.22827900
C       0.00000000     -0.81962700      1.18562900
C       0.00000000     -1.61811800      2.32553100
C       0.00000000     -1.00808300      3.56955500
C       0.00000000      0.39045000      3.64415200
C       0.00000000      1.18437700      2.50113900
O       0.00000000     -1.46873800      0.00000000
C       0.00000000     -0.81962700     -1.18562900
C       0.00000000     -1.61811800     -2.32553100
C       0.00000000     -1.00808300     -3.56955500
C       0.00000000      0.39045000     -3.64415200
C       0.00000000      1.18437700     -2.50113900
C       0.00000000      0.60404700     -1.22827900
H       0.00000000     -2.69522400      2.21256400
H       0.00000000     -1.60650900      4.47102800
H       0.00000000      0.86887200      4.61718700
H       0.00000000      2.26409000      2.57634300
H       0.00000000     -2.69522400     -2.21256400
H       0.00000000     -1.60650900     -4.47102800
H       0.00000000      0.86887200     -4.61718700
H       0.00000000      2.26409000     -2.57634300