28
Converted from GJF
O      -0.02790900     -2.20914400      1.09609300
C      -0.01713900     -1.12510100      0.53880300
C       1.30308000     -0.55345500      0.12293400
C       1.65897200      0.77473200      0.37299000
C       2.93560200      1.20271600      0.01186400
C       3.83505700      0.33886300     -0.60124800
C       3.47313400     -0.98101100     -0.85032000
C       2.21504600     -1.42736100     -0.47293200
C       0.67538400      1.72012500      1.00438700
C      -0.50294800      2.00225100      0.07508000
C      -1.52935400      0.89993700     -0.07716400
C      -1.31860200     -0.46867700      0.17043000
C      -2.38940400     -1.36635200      0.02623900
C      -3.64228900     -0.94547700     -0.37704900
C      -3.85210500      0.40642700     -0.63234800
C      -2.80967000      1.30406900     -0.47329500
H       3.22643000      2.22802500      0.21575800
H       4.81975300      0.69568900     -0.88160300
H       4.16959600     -1.66018100     -1.32796000
H       1.92526900     -2.45768100     -0.64447600
H       0.31064000      1.31896300      1.95646100
H       1.17736100      2.66240600      1.23217300
H      -1.02881700      2.89016900      0.43478100
H      -0.11744100      2.26098800     -0.91866800
H      -2.20638100     -2.41492800      0.22491600
H      -4.44731700     -1.66155400     -0.49271600
H      -4.82742600      0.76131300     -0.94593600
H      -2.98698500      2.35982300     -0.65169700