22
Photocatalyst
O       0.00000000      2.78394400     -0.00000100
C       0.00000000      1.57279700      0.00001500
C       1.18797900      0.66551700      0.00000300
C       0.74225500     -0.66295100      0.00000600
C       1.65274700     -1.70386600      0.00000400
C       3.01534000     -1.39016600     -0.00000300
C       3.45433200     -0.06894700     -0.00000800
C       2.53382800      0.98024400     -0.00000600
C      -0.74225400     -0.66295200      0.00000600
C      -1.18797900      0.66551700      0.00000400
C      -2.53382800      0.98024400     -0.00000500
C      -3.45433200     -0.06894700     -0.00000800
C      -3.01534000     -1.39016600     -0.00000300
C      -1.65274700     -1.70386600      0.00000300
H       1.32866800     -2.73820100      0.00000500
H       3.74486500     -2.19219900     -0.00000500
H       4.51691300      0.14345100     -0.00001200
H       2.86161800      2.01379900     -0.00000800
H      -2.86161800      2.01379900     -0.00000600
H      -4.51691300      0.14345100     -0.00001300
H      -3.74486500     -2.19219900     -0.00000700
H      -1.32866800     -2.73820100      0.00000400