31
Photocatalyst
O       0.74343000      2.96146600      0.01203200
C       0.72271500      1.74226600     -0.00675100
C      -0.60111700      1.03251500      0.00583000
C      -0.84546600     -0.07337700     -0.80689400
C      -2.10093500     -0.66560300     -0.82251700
C      -3.10549100     -0.16388900     -0.00358800
C      -4.47694900     -0.77775200     -0.03643400
F      -5.29449600     -0.12529400     -0.89078700
F      -5.07848500     -0.74420200      1.16564500
F      -4.45763800     -2.06147800     -0.43045200
C      -2.87191200      0.94010300      0.81254300
C      -1.62438300      1.54232000      0.80536100
C       1.97420600      0.94890000     -0.04190300
C       2.04273200     -0.36220200      0.42880500
C       3.24357300     -1.06032900      0.44172100
C       4.40032200     -0.44518000     -0.04007300
O       5.61046600     -1.03295800     -0.08437300
C       5.73822400     -2.36796100      0.38766000
C       4.34363800      0.87253100     -0.51699000
C       3.14979800      1.55867600     -0.50521300
H      -0.06217700     -0.46678500     -1.44353000
H      -2.28914000     -1.51706100     -1.46407500
H      -3.65767900      1.32749200      1.44935300
H      -1.43441200      2.40774400      1.42857100
H       1.15664300     -0.85038900      0.81690300
H       3.26349400     -2.07045900      0.82718400
H       6.78511200     -2.63098200      0.25491200
H       5.47630600     -2.43624000      1.44730000
H       5.11341100     -3.05151800     -0.19409300
H       5.25159100      1.33290000     -0.88771700
H       3.10752500      2.57988700     -0.86508500