30
Photocatalyst
O      -1.70798600      2.50711200     -0.44411000
C      -1.37201000      1.36672100     -0.17388300
C       0.07316400      1.03032600     -0.00877700
C       0.56681500     -0.21118300     -0.33110200
C       1.95383500     -0.48832400     -0.24480500
C       2.48249000     -1.76015700     -0.58604800
C       3.82584000     -2.00460900     -0.48341100
C       4.70292100     -0.98927500     -0.03624200
C       4.22056300      0.24895000      0.29761200
C       2.83497500      0.53262100      0.20048300
C       2.29921600      1.80755900      0.52932200
C       0.96177200      2.05411000      0.41590600
C      -2.40333900      0.29607300     -0.01373100
C      -2.26653600     -0.72357500      0.93077400
C      -3.27654300     -1.66478500      1.09183100
C      -4.41687400     -1.60539000      0.29814100
C      -4.55719900     -0.59225800     -0.64727300
C      -3.56083200      0.36209400     -0.79328300
H      -0.09729800     -0.99531300     -0.67789900
H       1.80488200     -2.53574100     -0.92730700
H       4.22353600     -2.97859800     -0.74435400
H       5.76428600     -1.19650000      0.04032700
H       4.89337900      1.02841600      0.63925200
H       2.97300200      2.58668300      0.86974100
H       0.55628400      3.02978100      0.65555700
H      -1.38228700     -0.77195400      1.55540800
H      -3.17149400     -2.44497900      1.83666300
H      -5.19868600     -2.34697000      0.41731100
H      -5.44542200     -0.54607500     -1.26669400
H      -3.66583100      1.16095500     -1.51819800