31
Photocatalyst
O       0.00000000     -2.86423700      0.56387400
C       0.00000000     -1.68759800      0.24080100
C       1.31784400     -0.99433600      0.02768900
C       1.46800600      0.40137300     -0.03475200
C       2.75351900      0.92389100     -0.21659600
C       3.86037600      0.09615800     -0.34907700
C       3.69987300     -1.28562900     -0.29428900
C       2.43841600     -1.82411500     -0.10051100
Si      0.00000000      1.55147700      0.14880400
C       0.00000000      2.84871800     -1.19919600
C       0.00000000      2.35278600      1.84119300
C      -1.46800600      0.40137300     -0.03475200
C      -2.75351900      0.92389000     -0.21659600
C      -3.86037600      0.09615800     -0.34907700
C      -3.69987200     -1.28562900     -0.29428900
C      -2.43841600     -1.82411500     -0.10051100
C      -1.31784400     -0.99433600      0.02768900
H       2.89545600      1.99976600     -0.26087500
H       4.84513300      0.52521400     -0.49718400
H       4.55756600     -1.93976400     -0.40158200
H       2.30357500     -2.89748500     -0.05062500
H       0.88296200      3.48949200     -1.11818500
H      -0.00000200      2.38605600     -2.18938500
H      -0.88296000      3.48949500     -1.11818300
H       0.00000200      1.59613100      2.63019500
H       0.88572900      2.98252900      1.96774200
H      -0.88573200      2.98252500      1.96774300
H      -2.89545600      1.99976600     -0.26087500
H      -4.84513300      0.52521400     -0.49718400
H      -4.55756600     -1.93976400     -0.40158200
H      -2.30357400     -2.89748500     -0.05062500