45
Converted from GJF
O       4.06323400      0.00019600     -0.10254700
C       2.87235000      0.20956100      0.05411000
C       2.14054500      1.04659200     -0.95928000
C       0.74159100      1.07680600     -1.08672300
C       0.17800200      1.88559700     -2.07871500
C       0.97109400      2.65806500     -2.91657300
C       2.35583800      2.62703500     -2.77937800
C       2.93472200      1.82182400     -1.81164700
Si     -0.33705900      0.00298400      0.00105900
C      -0.88249100     -1.54116900     -0.91736200
C      -0.23394300     -2.76597100     -0.72281200
C      -0.60783300     -3.89722600     -1.44214700
C      -1.63981200     -3.82074500     -2.37091300
C      -2.29705800     -2.61128900     -2.57825400
C      -1.92044500     -1.48418300     -1.85719000
C      -1.82627000      0.95964200      0.61663000
C      -3.03321500      0.31370700      0.91083200
C      -4.11408500      1.01752800      1.43259100
C      -4.00544100      2.38404900      1.66686400
C      -2.81396200      3.04388900      1.38045600
C      -1.73577300      2.33618900      0.86166100
C       0.80134700     -0.46906000      1.40630800
C       0.28364800     -1.00318200      2.59032300
C       1.11725300     -1.38450800      3.63305700
C       2.49599400     -1.24211200      3.50297300
C       3.02905000     -0.72579900      2.33290100
C       2.19339000     -0.33368900      1.28109800
H      -0.90109000      1.92205100     -2.19367000
H       0.51207400      3.28513100     -3.67261100
H       2.98186600      3.23041500     -3.42663400
H       4.01138300      1.78818200     -1.69974900
H       0.57153400     -2.84301600      0.00131800
H      -0.09478300     -4.83800200     -1.27563800
H      -1.93361000     -4.70155700     -2.93113000
H      -3.10398500     -2.54769900     -3.29990200
H      -2.45032400     -0.55114600     -2.02673200
H      -3.13668700     -0.75155700      0.72805000
H      -5.04097700      0.49984200      1.65337200
H      -4.84791400      2.93490800      2.07033800
H      -2.72600600      4.10966200      1.56014400
H      -0.81373100      2.86625400      0.64162000
H      -0.79043100     -1.11875500      2.70253100
H       0.69501300     -1.78898600      4.54608300
H       3.15311900     -1.53347700      4.31430000
H       4.10052400     -0.61490600      2.22101400