23
Photocatalyst
O       0.00000000      2.59801900      0.00000200
C       0.00000000      1.37436200      0.00000100
C       1.28276100      0.63005900      0.00000000
C       1.37688100     -0.76683000      0.00000000
C       2.63450500     -1.38675600      0.00000000
C       3.78483600     -0.62374700     -0.00000100
C       3.70594700      0.77205900     -0.00000100
C       2.46962500      1.38163200     -0.00000100
S       0.00000000     -1.84997400      0.00000100
C      -1.37688100     -0.76683000      0.00000000
C      -2.63450500     -1.38675600      0.00000000
C      -3.78483600     -0.62374700     -0.00000100
C      -3.70594700      0.77205900     -0.00000100
C      -2.46962500      1.38163200     -0.00000100
C      -1.28276100      0.63005900      0.00000000
H       2.70025500     -2.46908300      0.00000000
H       4.75063100     -1.11555400     -0.00000100
H       4.60927100      1.36980000     -0.00000200
H       2.38270400      2.46096300     -0.00000100
H      -2.70025500     -2.46908300      0.00000000
H      -4.75063100     -1.11555400     -0.00000100
H      -4.60927100      1.36980000     -0.00000200
H      -2.38270400      2.46096300     -0.00000100