24
Photocatalyst
O       0.00000000      2.68870200     -0.00000600
C       0.00000000      1.47248200      0.00002100
C      -1.27486900      0.70089000      0.00000700
C      -1.27486900     -0.70089000      0.00000500
C      -2.48416700     -1.39162900     -0.00000200
C      -3.68502600     -0.69619500     -0.00000900
C      -3.68502600      0.69619500     -0.00000800
C      -2.48416700      1.39162900     -0.00000100
C       0.00000000     -1.47248200      0.00000900
C       1.27486900     -0.70089000      0.00000500
C       2.48416700     -1.39162900     -0.00000200
C       3.68502600     -0.69619500     -0.00000900
C       3.68502600      0.69619500     -0.00000800
C       2.48416700      1.39162900     -0.00000100
C       1.27486900      0.70089000      0.00000700
O       0.00000000     -2.68870200      0.00000200
H      -2.46979200     -2.47453900     -0.00000400
H      -4.62288700     -1.23898800     -0.00001500
H      -4.62288700      1.23898800     -0.00001300
H      -2.46979200      2.47453900      0.00000100
H       2.46979200     -2.47453900     -0.00000300
H       4.62288700     -1.23898800     -0.00001500
H       4.62288700      1.23898800     -0.00001300
H       2.46979200      2.47453900      0.00000100