24
Converted from GJF
O       0.00001400      2.33865400     -0.00003200
C       0.00001500      1.11984600      0.00016100
C      -1.29068500      0.36615800      0.03376500
C      -1.41152700     -0.85682600      0.69737300
C      -2.64351900     -1.49689500      0.76087800
C      -3.75472400     -0.93066600      0.14553600
C      -3.63917000      0.28681000     -0.52104900
C      -2.41533700      0.93858600     -0.56578900
C       1.29070100      0.36614500     -0.03362000
C       1.41142400     -0.85687000     -0.69719200
C       2.64339400     -1.49696500     -0.76085000
C       3.75470100     -0.93072700     -0.14570100
C       3.63926700      0.28678200      0.52084600
C       2.41545300      0.93858200      0.56573800
H      -0.54960400     -1.30072400      1.18178400
H      -2.73472400     -2.43844000      1.28969600
H      -4.71268800     -1.43664500      0.18666400
H      -4.50475600      0.72766800     -1.00180100
H      -2.31720400      1.89176200     -1.07216700
H       0.54941800     -1.30077700     -1.18144900
H       2.73450300     -2.43853700     -1.28963700
H       4.71264900     -1.43672400     -0.18694900
H       4.50493200      0.72764600      1.00145000
H       2.31741100      1.89178200      1.07209000