24
Photocatalyst
O       0.00000100      2.77387900      0.00002300
C       0.00000100      1.55634400     -0.00003000
C      -1.29038400      0.80252900     -0.00383900
C      -2.40217600      1.37985900      0.61247300
C      -3.62946700      0.73683000      0.60176400
C      -3.74132900     -0.48265900     -0.05564800
Cl     -5.28818300     -1.29722100     -0.08254300
C      -2.65680300     -1.06836300     -0.69328700
C      -1.42785600     -0.42393500     -0.65543200
C       1.29038700      0.80252900      0.00380400
C       1.42783700     -0.42395200      0.65537000
C       2.65678200     -1.06838300      0.69324500
C       3.74132800     -0.48266400      0.05565500
Cl      5.28818000     -1.29722900      0.08257500
C       3.62948800      0.73684100     -0.60172900
C       2.40219900      1.37987300     -0.61246000
H      -2.29791600      2.33628500      1.11048300
H      -4.48832100      1.17569600      1.09325000
H      -2.76808400     -2.01260900     -1.21050900
H      -0.58115800     -0.87660200     -1.15748700
H       0.58112300     -0.87663000      1.15738600
H       2.76804500     -2.01264300      1.21044700
H       4.48835800      1.17571900     -1.09317800
H       2.29795500      2.33631200     -1.11044800