32
Photocatalyst
O       0.00000100      2.89235100     -0.00001200
C       0.00000100      1.66925900      0.00001600
C       1.28658300      0.92159700      0.04783200
C       1.45748200     -0.31652200     -0.56872700
C       2.68996900     -0.95974600     -0.56573200
C       3.77319800     -0.36485400      0.08186200
O       5.00560100     -0.90708600      0.15756000
C       5.23127100     -2.16958900     -0.45411700
C       3.61385600      0.87999800      0.70548000
C       2.39096600      1.51539200      0.67458800
C      -1.28658100      0.92159600     -0.04781400
C      -1.45749100     -0.31651500      0.56875600
C      -2.68997900     -0.95973700      0.56575000
C      -3.77319700     -0.36485200     -0.08186800
O      -5.00559900     -0.90708300     -0.15758000
C      -5.23128100     -2.16957800      0.45410900
C      -3.61384300      0.87999200     -0.70549900
C      -2.39095300      1.51538500     -0.67459600
H       0.62814300     -0.78591500     -1.08475800
H       2.79038600     -1.91234400     -1.06784900
H       4.59400800     -2.94058000     -0.01152900
H       6.27517500     -2.40956500     -0.26516100
H       5.05823600     -2.12068900     -1.53304400
H       4.46542900      1.32760900      1.20398000
H       2.27198500      2.48325700      1.14752400
H      -0.62816000     -0.78590300      1.08480600
H      -2.79040500     -1.91232900      1.06787700
H      -5.05826300     -2.12066600      1.53303800
H      -6.27518200     -2.40955500      0.26514000
H      -4.59401200     -2.94057600      0.01154100
H      -4.46540800      1.32759900     -1.20401800
H      -2.27196300      2.48324400     -1.14754100