40
Converted from GJF
O       0.00000100      2.94805300     -0.00003900
C       0.00000300      1.71916900      0.00006700
C       1.28307600      0.97474100      0.00288400
C       2.41905300      1.57214100      0.56146300
C       3.64768700      0.94447500      0.55635800
C       3.80938700     -0.32802200     -0.04279700
N       5.01941800     -0.96037500     -0.05013600
C       5.16861900     -2.23910000     -0.71917900
C       6.18978300     -0.30216000      0.50019200
C       2.66783200     -0.91537200     -0.63491500
C       1.44116100     -0.27896800     -0.59791100
C      -1.28306900      0.97473900     -0.00280200
C      -1.44118800     -0.27894900      0.59802600
C      -2.66786400     -0.91534800      0.63499100
C      -3.80938700     -0.32801300      0.04279600
N      -5.01942200     -0.96035900      0.05009700
C      -5.16866700     -2.23905500      0.71918600
C      -6.18975100     -0.30216600     -0.50033600
C      -3.64765000      0.94445800     -0.55640400
C      -2.41901500      1.57211900     -0.56146700
H       2.32444400      2.55077100      1.01891100
H       4.48924300      1.44298000      1.01775600
H       4.50395000     -2.99520900     -0.28853400
H       6.19230100     -2.58709200     -0.59835600
H       4.95808900     -2.16548000     -1.79281300
H       6.42048500      0.62966300     -0.02946200
H       6.05729900     -0.07143300      1.56241200
H       7.04750500     -0.96494500      0.40737500
H       2.74046400     -1.87322100     -1.13158700
H       0.59516000     -0.75980400     -1.07584400
H      -0.59521300     -0.75977200      1.07601700
H      -2.74052300     -1.87318000      1.13169000
H      -4.50398300     -2.99518900      0.28860600
H      -4.95818700     -2.16539200      1.79282700
H      -6.19234600     -2.58704300      0.59832900
H      -7.04748700     -0.96493300     -0.40751800
H      -6.05721100     -0.07151100     -1.56256400
H      -6.42046600      0.62969500      0.02924500
H      -4.48918000      1.44294700     -1.01786700
H      -2.32437800      2.55073200     -1.01894800