24
Photocatalyst
O       0.00000000     -2.56377300      0.00000000
C       0.00000000     -1.33348900      0.00000000
C      -1.24404800     -0.55128400      0.00000000
C      -1.20578200      0.85363900      0.00000000
C      -2.40584300      1.58737000      0.00000000
C      -3.61234200      0.92438300      0.00000000
C      -3.66451700     -0.47892300      0.00000000
C      -2.49119900     -1.19830900      0.00000000
N       0.00000000      1.50739100      0.00000000
C       1.20578200      0.85363900      0.00000000
C       2.40584300      1.58737000      0.00000000
C       3.61234200      0.92438300      0.00000000
C       3.66451700     -0.47892300      0.00000000
C       2.49119900     -1.19830900      0.00000000
C       1.24404800     -0.55128400      0.00000000
H      -2.37081100      2.67123800      0.00000000
H      -4.53211900      1.49832600      0.00000000
H      -4.62098900     -0.98722900      0.00000000
H      -2.49943900     -2.28190100      0.00000000
H       0.00000000      2.51600900     -0.00000100
H       2.37081100      2.67123800      0.00000000
H       4.53211900      1.49832600      0.00000000
H       4.62098900     -0.98722900      0.00000000
H       2.49943900     -2.28190100      0.00000000