23
Photocatalyst
O       0.00000000      2.58596500     -0.00000100
C       0.00000000      1.36299900     -0.00000100
C       1.23756100      0.56673700      0.00000000
C       1.17494200     -0.82806700      0.00000000
C       2.33563700     -1.60207500      0.00000000
C       3.56345400     -0.97002400      0.00000100
C       3.65088600      0.42836400      0.00000100
C       2.49743500      1.18333100      0.00000100
O       0.00000000     -1.50759300     -0.00000100
C      -1.17494200     -0.82806700     -0.00000100
C      -2.33563700     -1.60207500      0.00000000
C      -3.56345400     -0.97002400      0.00000100
C      -3.65088600      0.42836400      0.00000100
C      -2.49743500      1.18333100      0.00000000
C      -1.23756100      0.56673700      0.00000000
H       2.25138000     -2.68171800      0.00000000
H       4.46767900     -1.56750100      0.00000100
H       4.62047200      0.91092800      0.00000100
H       2.53515200      2.26621200      0.00000100
H      -2.25138000     -2.68171800      0.00000000
H      -4.46767900     -1.56750100      0.00000100
H      -4.62047200      0.91092800      0.00000100
H      -2.53515200      2.26621200      0.00000100