23
Converted from GJF
O      -0.06854000      2.80650600      0.00017400
C      -0.00063500      1.46979900     -0.00010200
C       1.16593500      0.63868100     -0.00009900
C       0.72766300     -0.71487900     -0.00010100
C       1.65075000     -1.74772400      0.00001200
C       3.01124100     -1.43738600      0.00009300
C       3.44391100     -0.10683900      0.00002600
C       2.53229800      0.94088900     -0.00005700
C      -0.73701100     -0.71196300     -0.00002100
C      -1.16640300      0.64161100     -0.00008500
C      -2.52812200      0.95828100     -0.00003500
C      -3.44779300     -0.08249200      0.00003900
C      -3.02497000     -1.41688700      0.00004300
C      -1.66736800     -1.73912600      0.00000900
H       0.81001100      3.19723200      0.00007600
H       1.32658800     -2.78284000      0.00006000
H       3.74332900     -2.23684000      0.00024000
H       4.50626300      0.10900800      0.00005200
H       2.88751300      1.96629600     -0.00020000
H      -2.85804000      1.99087400     -0.00003900
H      -4.50893800      0.14000800      0.00008500
H      -3.76340800     -2.21062400      0.00008200
H      -1.35197200     -2.77695100     -0.00007600