31
Photocatalyst_radical
O      -1.32491100      2.30692100      0.27292300
C      -1.23875800      0.95355100      0.15910000
C       0.06470100      0.34116100      0.16198600
C       1.19333000      1.06650500     -0.20738200
C       2.49022500      0.50173700     -0.16105200
C       3.64105000      1.23577800     -0.55127800
C       4.88546000      0.66237200     -0.50312100
C       5.04223100     -0.67083200     -0.06272000
C       3.94649900     -1.40456300      0.31898300
C       2.65054800     -0.84018900      0.27675200
C       1.49001800     -1.56792000      0.66747900
C       0.25099400     -1.00657900      0.61515300
C      -2.50822300      0.28824400     -0.00072600
C      -2.62319200     -0.96507800     -0.63730100
C      -3.85924000     -1.57242000     -0.79077600
C      -5.01749800     -0.94901300     -0.33026700
C      -4.92409700      0.30115800      0.27841500
C      -3.69259900      0.91623400      0.43834800
H      -0.52512500      2.65489600      0.67871600
H       1.09706200      2.07952800     -0.58574600
H       3.52072000      2.26005200     -0.88895000
H       5.75716700      1.23277700     -0.80364000
H       6.03194300     -1.11174600     -0.02810300
H       4.06164100     -2.42923700      0.65741400
H       1.60839500     -2.58362500      1.03071700
H      -0.60548200     -1.57284600      0.95887500
H      -1.74226900     -1.44913300     -1.04095100
H      -3.92203700     -2.53397000     -1.28811200
H      -5.98228700     -1.42732700     -0.45387600
H      -5.81967000      0.79890000      0.63385800
H      -3.62947000      1.88548000      0.91686400