29
Photocatalyst_radical
O       0.05344700     -2.42834900      0.27507600
C       0.01279400     -1.06975100      0.13177100
C      -1.31446000     -0.49067200      0.00920800
C      -1.62947500      0.85130400      0.33627700
C      -2.95141000      1.27687400      0.26872000
C      -3.98378300      0.42566600     -0.11333500
C      -3.68378000     -0.88634000     -0.45964200
C      -2.37434800     -1.33317000     -0.39990800
C      -0.55665300      1.83292000      0.70500800
C       0.51412300      1.92313600     -0.39207300
C       1.59674800      0.88875300     -0.24373400
C       1.32682800     -0.47942300      0.03903000
C       2.43963800     -1.34349200      0.20716400
C       3.74213300     -0.89661100      0.08661900
C       3.99470000      0.44092900     -0.20163300
C       2.91885600      1.30935200     -0.35222700
H      -0.77799500     -2.74371000      0.63867700
H      -3.17773700      2.30669500      0.52609600
H      -5.00445600      0.78824200     -0.15139500
H      -4.46544500     -1.56159600     -0.78850500
H      -2.16694000     -2.34750600     -0.72192000
H      -1.01158100      2.81333000      0.85844000
H      -0.08241700      1.54920900      1.65144300
H       0.02831800      1.82689300     -1.37030800
H       0.97818700      2.91137100     -0.37266100
H       2.25917100     -2.38421400      0.43524500
H       4.56154200     -1.59391800      0.22195100
H       5.01040100      0.80724100     -0.29699700
H       3.10989900      2.35790200     -0.55815200