46
Photocatalyst_radical
O       4.12662400      0.10598900      0.09760000
C       2.79141100     -0.06317100     -0.08857500
C       2.17851300      0.98142800     -0.87645300
C       0.77348500      1.07638600     -1.05674500
Si     -0.34010200     -0.02398700     -0.05042800
C      -0.88513600      0.86848100      1.51590700
C      -1.11770100      0.16332600      2.70293900
C      -1.56737800      0.81253700      3.84829100
C      -1.79112500      2.18549500      3.82663000
C      -1.56123500      2.90477000      2.65811200
C      -1.11165000      2.25014600      1.51582700
C       0.76234500     -1.46339900      0.37862900
C       0.22974000     -2.68874000      0.77604800
C       1.03993300     -3.74870500      1.17035600
C       2.42252800     -3.58442700      1.15248500
C       2.98207100     -2.38545700      0.74569200
C       2.17396600     -1.29331500      0.35272300
C      -1.85410200     -0.57040800     -1.01370300
C      -3.15225900     -0.31890300     -0.55816800
C      -4.26195900     -0.73437900     -1.28994500
C      -4.08769200     -1.40990100     -2.49221600
C      -2.80249700     -1.66947900     -2.96235300
C      -1.69893500     -1.25261600     -2.22835500
C       0.26099100      2.06791700     -1.89365000
C       1.08925500      2.98164600     -2.53638300
C       2.46623000      2.91121000     -2.33001400
C       3.00633900      1.93176700     -1.51523000
H       4.45137000     -0.48480500      0.78095200
H      -0.94233800     -0.90790200      2.74066400
H      -1.74016300      0.24801000      4.75808700
H      -2.13963800      2.69405000      4.71883900
H      -1.72911000      3.97605000      2.63748800
H      -0.93091100      2.82901700      0.61475500
H      -0.84875700     -2.82107200      0.77851800
H       0.60177800     -4.69025600      1.48009400
H       3.07214200     -4.40328900      1.44066900
H       4.06440400     -2.33080600      0.69543900
H      -3.30202000      0.20785300      0.37943400
H      -5.26113100     -0.53040900     -0.92087600
H      -4.95046400     -1.73430600     -3.06366300
H      -2.66310700     -2.19605000     -3.90011300
H      -0.70251700     -1.46206200     -2.60781400
H      -0.81336600      2.13232800     -2.04333500
H       0.66850800      3.74365200     -3.18236400
H       3.12464700      3.62313600     -2.81576500
H       4.07827400      1.88151400     -1.37690300