32
Converted from GJF
O       0.07149300     -2.96413900      0.24636300
C       0.00286500     -1.61240800      0.10830500
C      -1.29535200     -0.98874900      0.00329600
C      -1.46217100      0.42424900     -0.00369100
C      -2.75033400      0.95370100     -0.08245800
C      -3.88080100      0.14666600     -0.15825900
C      -3.71951300     -1.23615600     -0.17446800
C      -2.45553800     -1.79402300     -0.10127500
Si      0.00562100      1.57988300      0.08143600
C       0.03795300      2.49842400      1.71668300
C      -0.03059800      2.81161300     -1.33114900
C       1.46811200      0.42641900     -0.05568700
C       2.75954400      0.94553700     -0.16763800
C       3.88247100      0.12685100     -0.21154100
C       3.71571000     -1.25493500     -0.13249600
C       2.45069800     -1.80253700     -0.01990200
C       1.29909600     -0.98148400      0.01186500
H      -0.76862200     -3.31985600      0.54331300
H      -2.88082700      2.03279300     -0.08574600
H      -4.86951500      0.58692000     -0.21499600
H      -4.58372300     -1.88581600     -0.25626100
H      -2.39074400     -2.87506800     -0.16428000
H      -0.84799200      3.13253400      1.82052600
H       0.92218500      3.14011600      1.78070200
H       0.05997300      1.79878800      2.55654800
H      -0.91073500      3.45789800     -1.25939100
H       0.85574300      3.45296000     -1.30660400
H      -0.05764100      2.30012600     -2.29680400
H       2.89720000      2.02263900     -0.21740400
H       4.87327800      0.55771400     -0.30036800
H       4.58026400     -1.90932600     -0.15951900
H       2.33766900     -2.87668400      0.03975500