32
Photocatalyst_radical
O      -0.87416100      2.75618500     -0.00460000
C      -0.70777300      1.40586500      0.01152400
C       0.62032700      0.86747400      0.02930700
C       1.71000100      1.65215500      0.47403200
C       3.00200600      1.15912100      0.45989100
C       3.25274500     -0.13166500      0.00157000
C       4.64867600     -0.66314500     -0.06320000
F       4.72157000     -1.95764500      0.30762300
F       5.15955600     -0.60788700     -1.31682900
F       5.50239700      0.01616200      0.72188400
C       2.19510200     -0.92259000     -0.45738100
C       0.90568400     -0.43562600     -0.44580100
C      -1.94488000      0.65914000      0.04620100
C      -2.03746400     -0.62491100      0.62358800
C      -3.23547600     -1.30570000      0.66352700
C      -4.39792200     -0.72907900      0.13763900
O      -5.52201600     -1.47766300      0.22062300
C      -6.73179500     -0.93603800     -0.28689300
C      -4.33729400      0.55033400     -0.41610200
C      -3.12691500      1.22901100     -0.45309500
H      -0.09155500      3.18807100     -0.35924600
H       1.54118700      2.64353800      0.87851000
H       3.81369400      1.77717200      0.82312900
H       2.38505800     -1.91978500     -0.83693100
H       0.10875500     -1.05111600     -0.84227700
H      -1.16465900     -1.08078700      1.07484300
H      -3.29823500     -2.28804400      1.11688700
H      -7.49323300     -1.69451500     -0.11826800
H      -6.65390400     -0.73143100     -1.35894900
H      -7.00751300     -0.01971800      0.24373700
H      -5.21897200      1.02709200     -0.82346200
H      -3.09304000      2.21961100     -0.88910200