24
Photocatalyst_radical
O      -0.07109100     -2.61539000      0.26604300
C      -0.00355600     -1.26085300      0.17018300
C      -1.26991300     -0.60670400      0.05283200
C      -1.38624000      0.80109300      0.02475600
C      -2.62742100      1.41014800     -0.12892900
C      -3.78047700      0.64315700     -0.24043800
C      -3.68955600     -0.74775900     -0.19971300
C      -2.45892300     -1.36170600     -0.05896200
S      -0.00437900      1.86772000      0.28833500
C       1.38135700      0.80017400      0.04992400
C       2.62204000      1.41451700     -0.07700700
C       3.77938700      0.65675000     -0.20801200
C       3.68900200     -0.73311100     -0.23476200
C       2.45791100     -1.35258800     -0.12308200
C       1.26419600     -0.61129500      0.04049200
H       0.75178600     -2.97527100      0.60494100
H      -2.69267900      2.49255000     -0.15434100
H      -4.74152500      1.12966900     -0.35683800
H      -4.58435200     -1.35381000     -0.28284700
H      -2.39074000     -2.44122200     -0.03491500
H       2.68362100      2.49742800     -0.07171500
H       4.73976100      1.14928800     -0.30007100
H       4.58113000     -1.33594800     -0.35702800
H       2.42493700     -2.43401900     -0.19258900