25
Photocatalyst_radical
O      -0.08922100     -2.71533600     -0.00006200
C      -0.00380100     -1.37593300     -0.00004000
C      -1.24516600     -0.67654200      0.00003800
C      -1.25755200      0.73806800     -0.00002300
C      -2.48206500      1.41727200     -0.00006700
C      -3.67494400      0.72285800     -0.00000400
C      -3.66608800     -0.68045200      0.00013100
C      -2.47543700     -1.37208000      0.00014600
C      -0.00332900      1.50538800     -0.00006700
C       1.25029300      0.73286500     -0.00000900
C       2.46980300      1.41956100      0.00012200
C       3.66987600      0.73811700      0.00017500
C       3.67144400     -0.66399400      0.00002700
C       2.48562100     -1.36319100     -0.00010900
C       1.24336000     -0.68616300     -0.00007200
O       0.00049000      2.73830100     -0.00013200
H       0.77653800     -3.13095400     -0.00047100
H      -2.46899700      2.50041000     -0.00015100
H      -4.61684700      1.25865100     -0.00007800
H      -4.60320600     -1.22526300      0.00024000
H      -2.47158400     -2.45426200      0.00025800
H       2.44591600      2.50247200      0.00016900
H       4.60707100      1.28161200      0.00033600
H       4.61070500     -1.20441900      0.00001200
H       2.53816600     -2.44662700     -0.00025800