25
Photocatalyst_radical
O       0.05950600      2.30039800     -0.07698500
C       0.01236800      0.93895200     -0.04809500
C      -1.28589800      0.29733200     -0.03249700
C      -2.40226700      0.96403300      0.51218900
C      -3.66010900      0.37890700      0.49721200
C      -3.84476800     -0.88235600     -0.06127300
C      -2.75357600     -1.55105200     -0.61408000
C      -1.49468900     -0.97323100     -0.60622700
C       1.29582800      0.29575700      0.00707000
C       2.45750000      1.00360400     -0.37510400
C       3.70645400      0.40718900     -0.31366800
C       3.84554300     -0.90456000      0.13684700
C       2.71219600     -1.61017700      0.53909800
C       1.45846400     -1.02432600      0.48297800
H      -0.76926300      2.65262700     -0.41378200
H      -2.27923600      1.93238400      0.98561800
H      -4.49949700      0.90790300      0.93450100
H      -4.82802400     -1.33810300     -0.07096800
H      -2.88924100     -2.52576600     -1.06933600
H      -0.66836900     -1.49182100     -1.07677000
H       2.36115000      2.02138500     -0.73138500
H       4.58118600      0.96900800     -0.62283600
H       4.82435500     -1.36781600      0.18302000
H       2.80929000     -2.62330800      0.91357100
H       0.59932200     -1.58009400      0.83754700