25
Photocatalyst_radical
O       0.05650200      2.71057300      0.05858900
C       0.00960800      1.35122200      0.04960700
C       1.29189300      0.70752900      0.02175500
C       2.44771300      1.42233000      0.40623800
C       3.69979200      0.83437500      0.37399500
C       3.82457500     -0.48250300     -0.05389700
Cl      5.40784200     -1.23182700     -0.09258400
C       2.71268500     -1.21061700     -0.46326100
C       1.46276200     -0.61897700     -0.43054700
C      -1.28515300      0.70560500      0.02217300
C      -2.39340000      1.35840800     -0.55244200
C      -3.65079500      0.77615300     -0.55494300
C      -3.82081200     -0.47422400      0.02365900
Cl     -5.40613900     -1.21748400      0.02124400
C      -2.75289400     -1.14355000      0.61120900
C      -1.50071900     -0.55515700      0.61267600
H      -0.76922500      3.07196600      0.39354900
H       2.35029900      2.44568300      0.74429800
H       4.57413200      1.39358400      0.68363400
H       2.82526500     -2.22708500     -0.81946900
H       0.61352300     -1.18515400     -0.79107800
H      -2.26944000      2.31944200     -1.03888900
H      -4.48811600      1.28642600     -1.01431500
H      -2.90287000     -2.10862200      1.07885300
H      -0.68606300     -1.06612200      1.11017600