33
Converted from GJF
O      -0.15592800      2.70816900     -0.15807900
C      -0.03060800      1.34865500     -0.06920100
C      -1.27432500      0.63668900     -0.00515900
C      -2.47114800      1.25077900     -0.42402700
C      -3.69417000      0.59675200     -0.35607700
C      -3.76166300     -0.70339800      0.14457100
O      -4.90146200     -1.43237900      0.24996600
C      -6.11709000     -0.84013600     -0.17664400
C      -2.58861300     -1.32661600      0.58871200
C      -1.37719400     -0.67325100      0.52163100
C       1.30110000      0.78873800     -0.00548500
C       2.37494300      1.54387700      0.51678200
C       3.65998400      1.04116500      0.55186800
C       3.93304600     -0.24090000      0.06536000
O       5.22300600     -0.64902200      0.14737000
C       5.54883200     -1.94544600     -0.32736000
C       2.89259300     -1.00471200     -0.46623100
C       1.60419300     -0.49022500     -0.50360300
H       0.64404900      3.08638500     -0.53336100
H      -2.43624700      2.25788500     -0.81980100
H      -4.58229500      1.11113500     -0.69946300
H      -6.89101800     -1.58572400     -0.00603300
H      -6.34514500      0.05907200      0.40423700
H      -6.08350800     -0.58940300     -1.24153500
H      -2.65304000     -2.32682400      1.00182300
H      -0.49687700     -1.17033500      0.90998300
H       2.19359500      2.52892100      0.93346100
H       4.47142400      1.62716500      0.96779000
H       6.61679500     -2.06701700     -0.15879100
H       5.33729700     -2.04031800     -1.39689100
H       5.00384000     -2.71745900      0.22463800
H       3.07262300     -1.99201100     -0.87079200
H       0.82430700     -1.08745000     -0.96014300