41
Converted from GJF
O      -0.05278400      2.90504100     -0.06370000
C      -0.00975700      1.53260500     -0.05442800
C      -1.29285200      0.89713100      0.00362500
C      -1.47800500     -0.42615300      0.45985700
C      -2.72712000     -1.01312300      0.52104500
C      -3.89256600     -0.30975900      0.14903900
N      -5.14790000     -0.88566400      0.24166700
C      -5.24208300     -2.32337900      0.41670900
C      -6.26437800     -0.22903500     -0.41288600
C      -3.71670500      1.01681200     -0.29701600
C      -2.46428200      1.59787600     -0.35838700
C       1.28572500      0.89634900     -0.05534800
C       2.42227800      1.55669100      0.45349500
C       3.68111400      0.98267200      0.42971800
C       3.89291600     -0.29776400     -0.11922500
N       5.15163700     -0.86530600     -0.17383100
C       6.22380900     -0.26095300      0.59495000
C       5.26861000     -2.27970300     -0.47815500
C       2.75830100     -0.96551800     -0.62915900
C       1.50635700     -0.38291200     -0.60497700
H       0.75627400      3.24909300     -0.45189000
H      -0.62592900     -1.00342600      0.79827900
H      -2.79435600     -2.03102100      0.88153700
H      -6.29253500     -2.60665900      0.46402100
H      -4.77747900     -2.63640300      1.35489600
H      -4.76919200     -2.87954100     -0.40547100
H      -6.42693400      0.77033800     -0.00210500
H      -6.12169900     -0.13708200     -1.49928500
H      -7.17019600     -0.80603100     -0.23243400
H      -4.56915000      1.60736500     -0.60583500
H      -2.37874700      2.61879400     -0.71012100
H       2.31801400      2.53236500      0.91758200
H       4.50443600      1.53930300      0.85694400
H       6.40721800      0.76657000      0.27106300
H       6.01434800     -0.25116600      1.67409600
H       7.14095600     -0.82361300      0.42790900
H       4.87453600     -2.50192100     -1.47292800
H       4.74237700     -2.91150600      0.25135600
H       6.32166200     -2.55673000     -0.47641400
H       2.85444200     -1.94890600     -1.06968000
H       0.67989000     -0.92436500     -1.04991400