25
Photocatalyst_radical
O      -0.08201400      2.58178500      0.00749000
C      -0.00327200      1.22364000      0.01063100
C       1.23904500      0.53342500     -0.00109800
C       1.21679800     -0.88922500      0.00878200
C       2.40388800     -1.61411000      0.00970100
C       3.63150800     -0.95706200     -0.00196900
C       3.67630100      0.43479100     -0.01889100
C       2.49954700      1.16769100     -0.02144100
N      -0.00319900     -1.53640800      0.01552000
C      -1.22442700     -0.89038100      0.00270100
C      -2.41575400     -1.61013300     -0.00455500
C      -3.63679200     -0.94210100     -0.01136400
C      -3.67327000      0.45172900     -0.01036900
C      -2.49250500      1.17772700     -0.00351000
C      -1.24312600      0.52701000      0.00274000
H       0.78170200      2.97651600      0.14379600
H       2.36352300     -2.69827600      0.01820200
H       4.54821700     -1.53478400     -0.00060400
H       4.62932800      0.95035200     -0.03383800
H       2.57069800      2.25017100     -0.04557900
H      -0.00182000     -2.54428900      0.01797800
H      -2.38346900     -2.69462200     -0.00368000
H      -4.55775700     -1.51344000     -0.01680900
H      -4.62485000      0.97074300     -0.01472800
H      -2.51471400      2.26020500     -0.00146000