24
Converted from GJF
O      -0.08392100      2.60882500     -0.00017100
C      -0.00286400      1.25765900     -0.00029100
C      -1.23205900      0.54291100     -0.00014900
C      -1.19065300     -0.86545900     -0.00025600
C      -2.34600900     -1.62548900      0.00007800
C      -3.58547300     -0.99019300      0.00045500
C      -3.65632300      0.40241500      0.00050000
C      -2.49751900      1.16140100      0.00020200
O      -0.00290500     -1.54336100     -0.00093800
C       1.18341100     -0.86437200     -0.00034300
C       2.33446900     -1.62915500      0.00002100
C       3.58004100     -1.00504100      0.00042900
C       3.65914900      0.38577100      0.00055600
C       2.50465400      1.15126800      0.00032100
C       1.22901000      0.54903300     -0.00019200
H       0.78800600      3.01009200     -0.00287400
H      -2.26506800     -2.70589300     -0.00002100
H      -4.49129200     -1.58460800      0.00074200
H      -4.62119800      0.89595800      0.00074200
H      -2.54805300      2.24294700      0.00020800
H       2.24483700     -2.70885900     -0.00006900
H       4.48150000     -1.60563300      0.00073700
H       4.62547000      0.87590400      0.00088800
H       2.60140100      2.23188600      0.00053400